#y	Displacement_Y	Pressure	Stress_XX	Stress_ZZ
0	-4.72369E-23	-0.334479	0.668385	0.335052
0.001	-0.000502094	-0.334451	0.668344	0.335011
0.002	-0.00100419	-0.334424	0.668303	0.334969
0.003	-0.00150628	-0.334396	0.668261	0.334928
0.004	-0.00200838	-0.334369	0.66822	0.334887
0.005	-0.00251047	-0.334341	0.668179	0.334846
0.006	-0.00301256	-0.334314	0.668138	0.334804
0.007	-0.00351466	-0.334286	0.668096	0.334763
0.008	-0.00401675	-0.334259	0.668055	0.334722
0.009	-0.00451885	-0.334231	0.668014	0.33468
0.01	-0.00502094	-0.334204	0.667973	0.334639
0.011	-0.00552303	-0.334176	0.667932	0.334598
0.012	-0.00602513	-0.334149	0.66789	0.334557
0.013	-0.00652722	-0.334121	0.667849	0.334515
0.014	-0.00702932	-0.334094	0.667808	0.334474
0.015	-0.00753141	-0.334066	0.667767	0.334433
0.016	-0.00803314	-0.334039	0.667726	0.334392
0.017	-0.00853427	-0.334011	0.667684	0.33435
0.018	-0.00903539	-0.333984	0.667643	0.334309
0.019	-0.00953652	-0.333956	0.667602	0.334268
0.02	-0.0100376	-0.333929	0.66756	0.334227
0.021	-0.0105388	-0.333901	0.667519	0.334185
0.022	-0.0110399	-0.333874	0.667478	0.334144
0.023	-0.011541	-0.333847	0.667437	0.334103
0.024	-0.0120421	-0.333819	0.667395	0.334062
0.025	-0.0125433	-0.333792	0.667354	0.334021
0.026	-0.0130444	-0.333764	0.667313	0.333979
0.027	-0.0135455	-0.333737	0.667271	0.333938
0.028	-0.0140466	-0.333709	0.66723	0.333897
0.029	-0.0145478	-0.333682	0.667189	0.333856
0.03	-0.0150489	-0.333654	0.667148	0.333815
0.031	-0.01555	-0.333627	0.667106	0.333773
0.032	-0.0160504	-0.333599	0.667065	0.333732
0.033	-0.0165506	-0.333572	0.667024	0.333691
0.034	-0.0170508	-0.333544	0.666983	0.33365
0.035	-0.0175509	-0.333517	0.666941	0.333608
0.036	-0.0180511	-0.333489	0.6669	0.333567
0.037	-0.0185513	-0.333462	0.666859	0.333526
0.038	-0.0190514	-0.333434	0.666818	0.333485
0.039	-0.0195516	-0.333407	0.666777	0.333444
0.04	-0.0200518	-0.333379	0.666735	0.333402
0.041	-0.0205519	-0.333352	0.666694	0.333361
0.042	-0.0210521	-0.333324	0.666653	0.33332
0.043	-0.0215523	-0.333297	0.666612	0.333279
0.044	-0.0220524	-0.333269	0.66657	0.333237
0.045	-0.0225526	-0.333242	0.666529	0.333196
0.046	-0.0230528	-0.333214	0.666488	0.333155
0.047	-0.0235528	-0.333187	0.666447	0.333114
0.048	-0.024052	-0.333159	0.666406	0.333073
0.049	-0.0245512	-0.333132	0.666364	0.333031
0.05	-0.0250504	-0.333104	0.666323	0.33299
0.051	-0.0255496	-0.333077	0.666282	0.332949
0.052	-0.0260488	-0.333049	0.666241	0.332907
0.053	-0.026548	-0.333022	0.6662	0.332866
0.054	-0.0270472	-0.332994	0.666158	0.332825
0.055	-0.0275463	-0.332967	0.666117	0.332784
0.056	-0.0280455	-0.332939	0.666076	0.332742
0.057	-0.0285447	-0.332912	0.666035	0.332701
0.058	-0.0290439	-0.332885	0.665994	0.33266
0.059	-0.0295431	-0.332857	0.665952	0.332618
0.06	-0.0300423	-0.33283	0.665911	0.332577
0.061	-0.0305415	-0.332802	0.66587	0.332536
0.062	-0.0310407	-0.332775	0.665829	0.332495
0.063	-0.0315394	-0.332747	0.665787	0.332453
0.064	-0.0320376	-0.33272	0.665746	0.332412
0.065	-0.0325359	-0.332692	0.665705	0.332371
0.066	-0.0330341	-0.332665	0.665664	0.33233
0.067	-0.0335323	-0.332637	0.665622	0.332289
0.068	-0.0340306	-0.33261	0.665581	0.332247
0.069	-0.0345288	-0.332582	0.66554	0.332206
0.07	-0.035027	-0.332555	0.665498	0.332165
0.071	-0.0355252	-0.332527	0.665457	0.332124
0.072	-0.0360235	-0.3325	0.665416	0.332082
0.073	-0.0365217	-0.332472	0.665375	0.332041
0.074	-0.0370199	-0.332445	0.665333	0.332
0.075	-0.0375181	-0.332417	0.665292	0.331959
0.076	-0.0380164	-0.332389	0.665251	0.331918
0.077	-0.0385146	-0.332362	0.665209	0.331876
0.078	-0.0390128	-0.332334	0.665168	0.331835
0.079	-0.0395102	-0.332307	0.665127	0.331794
0.08	-0.0400075	-0.332279	0.665086	0.331753
0.081	-0.0405047	-0.332252	0.665044	0.331712
0.082	-0.041002	-0.332224	0.665003	0.33167
0.083	-0.0414992	-0.332197	0.664962	0.331629
0.084	-0.0419965	-0.332169	0.664921	0.331588
0.085	-0.0424938	-0.332142	0.66488	0.331547
0.086	-0.042991	-0.332114	0.664838	0.331505
0.087	-0.0434883	-0.332087	0.664797	0.331464
0.088	-0.0439855	-0.332059	0.664756	0.331423
0.089	-0.0444828	-0.332032	0.664715	0.331382
0.09	-0.0449801	-0.332004	0.664674	0.331341
0.091	-0.0454773	-0.331977	0.664632	0.331299
0.092	-0.0459746	-0.331949	0.664591	0.331258
0.093	-0.0464719	-0.331922	0.66455	0.331217
0.094	-0.0469689	-0.331894	0.664509	0.331176
0.095	-0.0474652	-0.331867	0.664468	0.331134
0.096	-0.0479615	-0.331839	0.664426	0.331093
0.097	-0.0484578	-0.331812	0.664385	0.331052
0.098	-0.0489541	-0.331784	0.664344	0.331011
0.099	-0.0494503	-0.331757	0.664303	0.330969
0.1	-0.0499466	-0.331729	0.664261	0.330928
0.101	-0.0504429	-0.331702	0.66422	0.330887
0.102	-0.0509392	-0.331674	0.664179	0.330845
0.103	-0.0514355	-0.331647	0.664138	0.330804
0.104	-0.0519318	-0.33162	0.664097	0.330763
0.105	-0.0524281	-0.331592	0.664055	0.330722
0.106	-0.0529244	-0.331565	0.664014	0.33068
0.107	-0.0534207	-0.331537	0.663973	0.330639
0.108	-0.053917	-0.33151	0.663932	0.330598
0.109	-0.0544133	-0.331482	0.66389	0.330556
0.11	-0.054909	-0.331455	0.663849	0.330515
0.111	-0.0554043	-0.331427	0.663808	0.330474
0.112	-0.0558996	-0.3314	0.663767	0.330433
0.113	-0.056395	-0.331372	0.663725	0.330392
0.114	-0.0568903	-0.331345	0.663684	0.33035
0.115	-0.0573856	-0.331317	0.663643	0.330309
0.116	-0.0578809	-0.33129	0.663602	0.330268
0.117	-0.0583763	-0.331262	0.66356	0.330227
0.118	-0.0588716	-0.331235	0.663519	0.330186
0.119	-0.0593669	-0.331207	0.663478	0.330144
0.12	-0.0598623	-0.33118	0.663436	0.330103
0.121	-0.0603576	-0.331152	0.663395	0.330062
0.122	-0.0608529	-0.331125	0.663354	0.330021
0.123	-0.0613482	-0.331097	0.663313	0.329979
0.124	-0.0618436	-0.331069	0.663271	0.329938
0.125	-0.0623389	-0.331042	0.66323	0.329897
0.126	-0.0628352	-0.331124	0.663354	0.330021
0.127	-0.0633315	-0.331207	0.663477	0.330144
0.128	-0.0638278	-0.331289	0.663601	0.330268
0.129	-0.0643241	-0.331372	0.663725	0.330392
0.13	-0.0648204	-0.331454	0.663849	0.330516
0.131	-0.0653167	-0.331537	0.663972	0.330639
0.132	-0.065813	-0.331619	0.664096	0.330763
0.133	-0.0663093	-0.331702	0.66422	0.330887
0.134	-0.0668055	-0.331784	0.664343	0.33101
0.135	-0.0673018	-0.331867	0.664467	0.331134
0.136	-0.0677981	-0.331949	0.664591	0.331258
0.137	-0.0682944	-0.332032	0.664715	0.331382
0.138	-0.0687907	-0.332114	0.664838	0.331505
0.139	-0.069287	-0.332197	0.664962	0.331629
0.14	-0.0697833	-0.332279	0.665086	0.331753
0.141	-0.0702807	-0.332362	0.665209	0.331876
0.142	-0.0707799	-0.332444	0.665333	0.332
0.143	-0.0712791	-0.332527	0.665457	0.332124
0.144	-0.0717783	-0.332609	0.665581	0.332248
0.145	-0.0722775	-0.332692	0.665704	0.332371
0.146	-0.0727767	-0.332774	0.665828	0.332495
0.147	-0.0732759	-0.332857	0.665952	0.332619
0.148	-0.0737751	-0.332939	0.666075	0.332742
0.149	-0.0742742	-0.333022	0.666199	0.332866
0.15	-0.0747734	-0.333104	0.666323	0.33299
0.151	-0.0752726	-0.333187	0.666447	0.333114
0.152	-0.0757718	-0.333269	0.66657	0.333237
0.153	-0.076271	-0.333352	0.666694	0.333361
0.154	-0.0767702	-0.333434	0.666818	0.333485
0.155	-0.0772694	-0.333517	0.666941	0.333608
0.156	-0.0777686	-0.333599	0.667065	0.333732
0.157	-0.07827	-0.333682	0.667189	0.333856
0.158	-0.0787721	-0.333764	0.667313	0.333979
0.159	-0.0792742	-0.333847	0.667436	0.334103
0.16	-0.0797763	-0.333929	0.66756	0.334227
0.161	-0.0802784	-0.334012	0.667684	0.334351
0.162	-0.0807805	-0.334094	0.667807	0.334474
0.163	-0.0812826	-0.334176	0.667931	0.334598
0.164	-0.0817847	-0.334259	0.668055	0.334722
0.165	-0.0822868	-0.334341	0.668178	0.334845
0.166	-0.0827889	-0.334424	0.668302	0.334969
0.167	-0.083291	-0.334506	0.668426	0.335093
0.168	-0.0837931	-0.334589	0.66855	0.335217
0.169	-0.0842952	-0.334671	0.668673	0.33534
0.17	-0.0847973	-0.334753	0.668797	0.335464
0.171	-0.0852994	-0.334836	0.668921	0.335588
0.172	-0.0858018	-0.334918	0.669044	0.335711
0.173	-0.0863068	-0.335001	0.669168	0.335835
0.174	-0.0868118	-0.335083	0.669292	0.335959
0.175	-0.0873168	-0.335166	0.669416	0.336083
0.176	-0.0878218	-0.335248	0.669539	0.336206
0.177	-0.0883268	-0.335331	0.669663	0.33633
0.178	-0.0888318	-0.335413	0.669787	0.336454
0.179	-0.0893368	-0.335496	0.66991	0.336577
0.18	-0.0898418	-0.335578	0.670034	0.336701
0.181	-0.0903467	-0.335661	0.670158	0.336825
0.182	-0.0908517	-0.335743	0.670282	0.336949
0.183	-0.0913567	-0.335826	0.670405	0.337072
0.184	-0.0918617	-0.335908	0.670529	0.337196
0.185	-0.0923667	-0.335991	0.670653	0.33732
0.186	-0.0928717	-0.336073	0.670776	0.337443
0.187	-0.0933767	-0.336156	0.6709	0.337567
0.188	-0.0938831	-0.336238	0.671024	0.337691
0.189	-0.094391	-0.336321	0.671148	0.337815
0.19	-0.0948989	-0.336403	0.671271	0.337938
0.191	-0.0954068	-0.336486	0.671395	0.338062
0.192	-0.0959147	-0.336568	0.671519	0.338186
0.193	-0.0964226	-0.336651	0.671642	0.338309
0.194	-0.0969305	-0.336733	0.671766	0.338433
0.195	-0.0974384	-0.336816	0.67189	0.338557
0.196	-0.0979463	-0.336898	0.672014	0.338681
0.197	-0.0984542	-0.336981	0.672137	0.338804
0.198	-0.0989621	-0.337063	0.672261	0.338928
0.199	-0.09947	-0.337146	0.672385	0.339052
0.2	-0.0999778	-0.337228	0.672508	0.339175
0.201	-0.100486	-0.337311	0.672632	0.339299
0.202	-0.100994	-0.337393	0.672756	0.339423
0.203	-0.101502	-0.337476	0.67288	0.339547
0.204	-0.102012	-0.337558	0.673003	0.33967
0.205	-0.102523	-0.337641	0.673127	0.339794
0.206	-0.103034	-0.337723	0.673251	0.339918
0.207	-0.103544	-0.337805	0.673374	0.340041
0.208	-0.104055	-0.337888	0.673498	0.340165
0.209	-0.104566	-0.33797	0.673622	0.340289
0.21	-0.105077	-0.338053	0.673746	0.340413
0.211	-0.105587	-0.338135	0.673869	0.340536
0.212	-0.106098	-0.338218	0.673993	0.34066
0.213	-0.106609	-0.3383	0.674117	0.340784
0.214	-0.10712	-0.338382	0.67424	0.340907
0.215	-0.107631	-0.338465	0.674364	0.341031
0.216	-0.108141	-0.338547	0.674488	0.341155
0.217	-0.108652	-0.33863	0.674612	0.341279
0.218	-0.109163	-0.338712	0.674735	0.341402
0.219	-0.109674	-0.338795	0.674859	0.341526
0.22	-0.110188	-0.338877	0.674983	0.34165
0.221	-0.110702	-0.33896	0.675106	0.341773
0.222	-0.111216	-0.339042	0.67523	0.341897
0.223	-0.111729	-0.339125	0.675354	0.342021
0.224	-0.112243	-0.339207	0.675477	0.342144
0.225	-0.112757	-0.33929	0.675601	0.342268
0.226	-0.113271	-0.339372	0.675725	0.342392
0.227	-0.113784	-0.339455	0.675849	0.342516
0.228	-0.114298	-0.339537	0.675972	0.342639
0.229	-0.114812	-0.33962	0.676096	0.342763
0.23	-0.115325	-0.339702	0.67622	0.342887
0.231	-0.115839	-0.339785	0.676343	0.34301
0.232	-0.116353	-0.339867	0.676467	0.343134
0.233	-0.116867	-0.33995	0.676591	0.343258
0.234	-0.11738	-0.340032	0.676715	0.343382
0.235	-0.117896	-0.340115	0.676838	0.343505
0.236	-0.118412	-0.340197	0.676962	0.343629
0.237	-0.118929	-0.34028	0.677086	0.343753
0.238	-0.119445	-0.340362	0.677209	0.343876
0.239	-0.119962	-0.340445	0.677333	0.344
0.24	-0.120479	-0.340527	0.677457	0.344124
0.241	-0.120995	-0.34061	0.677581	0.344248
0.242	-0.121512	-0.340692	0.677704	0.344371
0.243	-0.122028	-0.340775	0.677828	0.344495
0.244	-0.122545	-0.340857	0.677952	0.344619
0.245	-0.123061	-0.34094	0.678075	0.344742
0.246	-0.123578	-0.341022	0.678199	0.344866
0.247	-0.124094	-0.341105	0.678323	0.34499
0.248	-0.124611	-0.341187	0.678447	0.345114
0.249	-0.125127	-0.341269	0.67857	0.345237
0.25	-0.125644	-0.341352	0.678694	0.345361
0.251	-0.126157	-0.34105	0.67824	0.344907
0.252	-0.12667	-0.340747	0.677787	0.344454
0.253	-0.127182	-0.340445	0.677333	0.344
0.254	-0.127695	-0.340142	0.67688	0.343546
0.255	-0.128208	-0.33984	0.676426	0.343093
0.256	-0.128721	-0.339538	0.675973	0.342639
0.257	-0.129233	-0.339235	0.675519	0.342186
0.258	-0.129746	-0.338933	0.675065	0.341732
0.259	-0.130259	-0.33863	0.674612	0.341278
0.26	-0.130772	-0.338328	0.674158	0.340825
0.261	-0.131284	-0.338026	0.673705	0.340371
0.262	-0.131797	-0.337723	0.673251	0.339917
0.263	-0.13231	-0.337421	0.672798	0.339464
0.264	-0.132823	-0.337118	0.672344	0.33901
0.265	-0.133336	-0.336816	0.67189	0.338557
0.266	-0.133844	-0.336514	0.671437	0.338103
0.267	-0.134346	-0.336211	0.670983	0.337649
0.268	-0.134848	-0.335909	0.67053	0.337196
0.269	-0.135351	-0.335606	0.670076	0.336742
0.27	-0.135853	-0.335304	0.669622	0.336289
0.271	-0.136355	-0.335001	0.669169	0.335835
0.272	-0.136857	-0.334699	0.668715	0.335381
0.273	-0.137359	-0.334396	0.668261	0.334928
0.274	-0.137861	-0.334094	0.667808	0.334474
0.275	-0.138363	-0.333791	0.667354	0.334021
0.276	-0.138865	-0.333489	0.666901	0.333567
0.277	-0.139367	-0.333186	0.666447	0.333114
0.278	-0.139869	-0.332884	0.665993	0.33266
0.279	-0.140371	-0.332582	0.66554	0.332207
0.28	-0.140873	-0.332279	0.665086	0.331753
0.281	-0.141375	-0.331977	0.664632	0.331299
0.282	-0.14187	-0.331674	0.664179	0.330846
0.283	-0.142361	-0.331372	0.663725	0.330392
0.284	-0.142853	-0.331069	0.663272	0.329939
0.285	-0.143344	-0.330767	0.662818	0.329485
0.286	-0.143835	-0.330465	0.662364	0.329031
0.287	-0.144327	-0.330162	0.661911	0.328578
0.288	-0.144818	-0.32986	0.661457	0.328124
0.289	-0.14531	-0.329557	0.661003	0.32767
0.29	-0.145801	-0.329255	0.66055	0.327217
0.291	-0.146293	-0.328953	0.660096	0.326763
0.292	-0.146784	-0.32865	0.659642	0.326309
0.293	-0.147276	-0.328348	0.659189	0.325856
0.294	-0.147767	-0.328045	0.658735	0.325402
0.295	-0.148259	-0.327743	0.658282	0.324949
0.296	-0.14875	-0.327441	0.657828	0.324495
0.297	-0.14924	-0.327138	0.657374	0.324041
0.298	-0.149721	-0.326836	0.656921	0.323588
0.299	-0.150202	-0.326533	0.656467	0.323134
0.3	-0.150683	-0.326231	0.656014	0.32268
0.301	-0.151163	-0.325929	0.65556	0.322227
0.302	-0.151644	-0.325626	0.655106	0.321773
0.303	-0.152125	-0.325324	0.654653	0.321319
0.304	-0.152606	-0.325021	0.654199	0.320866
0.305	-0.153087	-0.324719	0.653746	0.320412
0.306	-0.153568	-0.324417	0.653292	0.319959
0.307	-0.154048	-0.324114	0.652839	0.319505
0.308	-0.154529	-0.323812	0.652385	0.319051
0.309	-0.15501	-0.323509	0.651932	0.318598
0.31	-0.155491	-0.323207	0.651478	0.318144
0.311	-0.155972	-0.322905	0.651024	0.31769
0.312	-0.156453	-0.322602	0.650571	0.317237
0.313	-0.156928	-0.3223	0.650117	0.316783
0.314	-0.157398	-0.321997	0.649664	0.31633
0.315	-0.157869	-0.321695	0.64921	0.315876
0.316	-0.158339	-0.321393	0.648756	0.315423
0.317	-0.158809	-0.32109	0.648303	0.314969
0.318	-0.159279	-0.320788	0.647849	0.314515
0.319	-0.159749	-0.320485	0.647395	0.314062
0.32	-0.16022	-0.320183	0.646942	0.313608
0.321	-0.16069	-0.319881	0.646488	0.313155
0.322	-0.16116	-0.319578	0.646034	0.312701
0.323	-0.16163	-0.319276	0.645581	0.312248
0.324	-0.1621	-0.318973	0.645127	0.311794
0.325	-0.162571	-0.318671	0.644674	0.31134
0.326	-0.163041	-0.318369	0.64422	0.310887
0.327	-0.163511	-0.318066	0.643766	0.310433
0.328	-0.163981	-0.317764	0.643313	0.30998
0.329	-0.164442	-0.317461	0.642859	0.309526
0.33	-0.164902	-0.317159	0.642405	0.309072
0.331	-0.165361	-0.316857	0.641952	0.308619
0.332	-0.165821	-0.316554	0.641498	0.308165
0.333	-0.16628	-0.316252	0.641045	0.307712
0.334	-0.16674	-0.315949	0.640591	0.307258
0.335	-0.1672	-0.315647	0.640137	0.306804
0.336	-0.167659	-0.315345	0.639684	0.306351
0.337	-0.168119	-0.315042	0.63923	0.305897
0.338	-0.168578	-0.31474	0.638776	0.305443
0.339	-0.169038	-0.314437	0.638323	0.30499
0.34	-0.169498	-0.314135	0.637869	0.304536
0.341	-0.169957	-0.313833	0.637415	0.304082
0.342	-0.170417	-0.31353	0.636962	0.303629
0.343	-0.170876	-0.313228	0.636508	0.303175
0.344	-0.171333	-0.312925	0.636055	0.302722
0.345	-0.171782	-0.312623	0.635601	0.302268
0.346	-0.172231	-0.312321	0.635148	0.301814
0.347	-0.17268	-0.312018	0.634694	0.301361
0.348	-0.173129	-0.311716	0.63424	0.300907
0.349	-0.173578	-0.311413	0.633787	0.300453
0.35	-0.174027	-0.311111	0.633333	0.3
0.351	-0.174476	-0.310809	0.63288	0.299546
0.352	-0.174924	-0.310506	0.632426	0.299093
0.353	-0.175373	-0.310204	0.631972	0.298639
0.354	-0.175822	-0.309901	0.631519	0.298185
0.355	-0.176271	-0.309599	0.631065	0.297732
0.356	-0.17672	-0.309297	0.630612	0.297278
0.357	-0.177169	-0.308994	0.630158	0.296824
0.358	-0.177618	-0.308692	0.629705	0.296371
0.359	-0.178067	-0.308389	0.629251	0.295917
0.36	-0.178509	-0.308087	0.628797	0.295464
0.361	-0.178947	-0.307785	0.628344	0.29501
0.362	-0.179386	-0.307482	0.62789	0.294556
0.363	-0.179824	-0.30718	0.627437	0.294103
0.364	-0.180262	-0.306877	0.626983	0.293649
0.365	-0.180701	-0.306575	0.626529	0.293196
0.366	-0.181139	-0.306273	0.626076	0.292742
0.367	-0.181577	-0.30597	0.625622	0.292289
0.368	-0.182016	-0.305668	0.625168	0.291835
0.369	-0.182454	-0.305365	0.624715	0.291381
0.37	-0.182892	-0.305063	0.624261	0.290928
0.371	-0.183331	-0.304761	0.623808	0.290474
0.372	-0.183769	-0.304458	0.623354	0.290021
0.373	-0.184207	-0.304156	0.6229	0.289567
0.374	-0.184646	-0.303853	0.622447	0.289114
0.375	-0.185084	-0.303551	0.621993	0.28866
0.376	-0.185537	-0.304678	0.623684	0.290351
0.377	-0.18599	-0.305805	0.625374	0.292041
0.378	-0.186442	-0.306932	0.627065	0.293732
0.379	-0.186895	-0.30806	0.628756	0.295423
0.38	-0.187348	-0.309187	0.630447	0.297113
0.381	-0.187801	-0.310314	0.632138	0.298804
0.382	-0.188254	-0.311441	0.633828	0.300495
0.383	-0.188706	-0.312568	0.635519	0.302185
0.384	-0.189159	-0.313696	0.63721	0.303876
0.385	-0.189612	-0.314823	0.638901	0.305567
0.386	-0.190065	-0.31595	0.640591	0.307258
0.387	-0.190518	-0.317077	0.642282	0.308948
0.388	-0.19097	-0.318204	0.643973	0.310639
0.389	-0.191423	-0.319331	0.645663	0.31233
0.39	-0.191876	-0.320459	0.647354	0.31402
0.391	-0.192344	-0.321586	0.649045	0.315711
0.392	-0.192836	-0.322713	0.650736	0.317402
0.393	-0.193328	-0.32384	0.652426	0.319093
0.394	-0.193821	-0.324967	0.654117	0.320783
0.395	-0.194313	-0.326094	0.655808	0.322474
0.396	-0.194806	-0.327221	0.657498	0.324165
0.397	-0.195298	-0.328348	0.659189	0.325856
0.398	-0.195791	-0.329475	0.66088	0.327546
0.399	-0.196283	-0.330602	0.66257	0.329237
0.4	-0.196775	-0.33173	0.664261	0.330928
0.401	-0.197268	-0.332857	0.665952	0.332619
0.402	-0.19776	-0.333984	0.667643	0.334309
0.403	-0.198253	-0.335111	0.669333	0.336
0.404	-0.198745	-0.336238	0.671024	0.337691
0.405	-0.199237	-0.337365	0.672715	0.339382
0.406	-0.19973	-0.338492	0.674405	0.341072
0.407	-0.200252	-0.339619	0.676096	0.342763
0.408	-0.200784	-0.340747	0.677787	0.344454
0.409	-0.201316	-0.341874	0.679478	0.346144
0.41	-0.201848	-0.343001	0.681168	0.347835
0.411	-0.20238	-0.344128	0.682859	0.349526
0.412	-0.202912	-0.345255	0.68455	0.351216
0.413	-0.203444	-0.346382	0.686241	0.352907
0.414	-0.203976	-0.34751	0.687931	0.354598
0.415	-0.204508	-0.348637	0.689622	0.356288
0.416	-0.20504	-0.349764	0.691313	0.357979
0.417	-0.205572	-0.350891	0.693004	0.35967
0.418	-0.206104	-0.352018	0.694694	0.361361
0.419	-0.206636	-0.353145	0.696385	0.363051
0.42	-0.207168	-0.354273	0.698076	0.364742
0.421	-0.2077	-0.3554	0.699767	0.366433
0.422	-0.208237	-0.356527	0.701457	0.368123
0.423	-0.208809	-0.357654	0.703148	0.369814
0.424	-0.209381	-0.358781	0.704839	0.371505
0.425	-0.209953	-0.359908	0.706529	0.373196
0.426	-0.210524	-0.361036	0.70822	0.374886
0.427	-0.211096	-0.362163	0.709911	0.376577
0.428	-0.211668	-0.36329	0.711601	0.378268
0.429	-0.212239	-0.364417	0.713292	0.379959
0.43	-0.212811	-0.365544	0.714983	0.381649
0.431	-0.213383	-0.366671	0.716673	0.38334
0.432	-0.213955	-0.367799	0.718364	0.385031
0.433	-0.214526	-0.368926	0.720055	0.386722
0.434	-0.215098	-0.370053	0.721746	0.388412
0.435	-0.21567	-0.37118	0.723436	0.390103
0.436	-0.216241	-0.372307	0.725127	0.391794
0.437	-0.216813	-0.373434	0.726818	0.393485
0.438	-0.217405	-0.374562	0.728508	0.395175
0.439	-0.218016	-0.375689	0.730199	0.396866
0.44	-0.218627	-0.376816	0.73189	0.398557
0.441	-0.219239	-0.377943	0.733581	0.400247
0.442	-0.21985	-0.37907	0.735271	0.401938
0.443	-0.220461	-0.380197	0.736962	0.403629
0.444	-0.221073	-0.381324	0.738653	0.405319
0.445	-0.221684	-0.382451	0.740344	0.40701
0.446	-0.222295	-0.383578	0.742034	0.408701
0.447	-0.222907	-0.384705	0.743725	0.410392
0.448	-0.223518	-0.385833	0.745416	0.412082
0.449	-0.224129	-0.38696	0.747107	0.413773
0.45	-0.224741	-0.388087	0.748797	0.415464
0.451	-0.225352	-0.389214	0.750488	0.417154
0.452	-0.225963	-0.390341	0.752179	0.418845
0.453	-0.226575	-0.391468	0.75387	0.420536
0.454	-0.227221	-0.392595	0.75556	0.422226
0.455	-0.227871	-0.393722	0.757251	0.423917
0.456	-0.228522	-0.39485	0.758942	0.425608
0.457	-0.229173	-0.395977	0.760632	0.427299
0.458	-0.229824	-0.397104	0.762323	0.428989
0.459	-0.230475	-0.398231	0.764014	0.43068
0.46	-0.231126	-0.399358	0.765705	0.432371
0.461	-0.231777	-0.400485	0.767395	0.434062
0.462	-0.232428	-0.401613	0.769086	0.435752
0.463	-0.233078	-0.40274	0.770777	0.437443
0.464	-0.233729	-0.403867	0.772467	0.439134
0.465	-0.23438	-0.404994	0.774158	0.440825
0.466	-0.235031	-0.406121	0.775849	0.442515
0.467	-0.235682	-0.407248	0.777539	0.444206
0.468	-0.236333	-0.408376	0.77923	0.445897
0.469	-0.236994	-0.409503	0.780921	0.447588
0.47	-0.237684	-0.41063	0.782611	0.449278
0.471	-0.238375	-0.411757	0.784302	0.450969
0.472	-0.239065	-0.412884	0.785993	0.45266
0.473	-0.239756	-0.414011	0.787684	0.45435
0.474	-0.240446	-0.415139	0.789374	0.456041
0.475	-0.241137	-0.416266	0.791065	0.457732
0.476	-0.241828	-0.417393	0.792756	0.459422
0.477	-0.242518	-0.41852	0.794447	0.461113
0.478	-0.243209	-0.419647	0.796137	0.462804
0.479	-0.243899	-0.420774	0.797828	0.464495
0.48	-0.24459	-0.421902	0.799519	0.466185
0.481	-0.24528	-0.423029	0.80121	0.467876
0.482	-0.245971	-0.424156	0.8029	0.469567
0.483	-0.246661	-0.425283	0.804591	0.471257
0.484	-0.247352	-0.42641	0.806282	0.472948
0.485	-0.248067	-0.427537	0.807973	0.474639
0.486	-0.248798	-0.428665	0.809663	0.476329
0.487	-0.249528	-0.429792	0.811354	0.47802
0.488	-0.250258	-0.430919	0.813045	0.479711
0.489	-0.250988	-0.432046	0.814735	0.481402
0.49	-0.251719	-0.433173	0.816426	0.483092
0.491	-0.252449	-0.4343	0.818117	0.484783
0.492	-0.253179	-0.435427	0.819808	0.486474
0.493	-0.253909	-0.436554	0.821498	0.488165
0.494	-0.25464	-0.437681	0.823189	0.489855
0.495	-0.25537	-0.438809	0.82488	0.491546
0.496	-0.2561	-0.439936	0.82657	0.493237
0.497	-0.25683	-0.441063	0.828261	0.494928
0.498	-0.257561	-0.44219	0.829952	0.496618
0.499	-0.258291	-0.443317	0.831642	0.498309
0.5	-0.259021	-0.444444	0.833333	0.5
0.501	-0.259291	-0.446698	1.00338	0.336714
0.502	-0.259561	-0.448953	1.00676	0.340096
0.503	-0.25983	-0.451207	1.01015	0.343477
0.504	-0.2601	-0.453461	1.01353	0.346859
0.505	-0.26037	-0.455716	1.01691	0.35024
0.506	-0.26064	-0.45797	1.02029	0.353622
0.507	-0.260909	-0.460224	1.02367	0.357003
0.508	-0.261179	-0.462479	1.02705	0.360385
0.509	-0.261449	-0.464733	1.03044	0.363766
0.51	-0.261719	-0.466987	1.03382	0.367147
0.511	-0.261988	-0.469242	1.0372	0.370529
0.512	-0.262258	-0.471496	1.04058	0.37391
0.513	-0.262528	-0.47375	1.04396	0.377292
0.514	-0.262798	-0.476005	1.04734	0.380673
0.515	-0.263067	-0.478259	1.05073	0.384055
0.516	-0.263352	-0.480513	1.05411	0.387436
0.517	-0.263661	-0.482768	1.05749	0.390818
0.518	-0.263971	-0.485022	1.06087	0.394199
0.519	-0.26428	-0.487276	1.06425	0.39758
0.52	-0.26459	-0.48953	1.06763	0.400962
0.521	-0.264899	-0.491785	1.07101	0.404343
0.522	-0.265209	-0.494039	1.07439	0.407725
0.523	-0.265518	-0.496293	1.07778	0.411106
0.524	-0.265828	-0.498548	1.08116	0.414488
0.525	-0.266137	-0.500802	1.08454	0.417869
0.526	-0.266446	-0.503056	1.08792	0.421251
0.527	-0.266756	-0.50531	1.0913	0.424632
0.528	-0.267065	-0.507565	1.09468	0.428013
0.529	-0.267375	-0.509819	1.09806	0.431395
0.53	-0.267684	-0.512073	1.10144	0.434776
0.531	-0.267994	-0.514328	1.10482	0.438158
0.532	-0.268333	-0.516582	1.10821	0.441539
0.533	-0.268682	-0.518836	1.11159	0.44492
0.534	-0.269031	-0.52109	1.11497	0.448302
0.535	-0.26938	-0.523345	1.11835	0.451683
0.536	-0.269729	-0.525599	1.12173	0.455065
0.537	-0.270078	-0.527853	1.12512	0.458446
0.538	-0.270428	-0.530108	1.1285	0.461828
0.539	-0.270777	-0.532362	1.13188	0.465209
0.54	-0.271126	-0.534616	1.13526	0.468591
0.541	-0.271475	-0.536871	1.13864	0.471972
0.542	-0.271824	-0.539125	1.14202	0.475353
0.543	-0.272173	-0.541379	1.14541	0.478735
0.544	-0.272522	-0.543634	1.14879	0.482116
0.545	-0.272871	-0.545888	1.15217	0.485498
0.546	-0.273221	-0.548142	1.15555	0.488879
0.547	-0.273575	-0.550397	1.15893	0.492261
0.548	-0.273963	-0.552651	1.16231	0.495642
0.549	-0.274352	-0.554905	1.16569	0.499024
0.55	-0.274741	-0.55716	1.16908	0.502405
0.551	-0.275129	-0.559414	1.17246	0.505787
0.552	-0.275518	-0.561668	1.17584	0.509168
0.553	-0.275907	-0.563922	1.17922	0.51255
0.554	-0.276295	-0.566177	1.1826	0.515931
0.555	-0.276684	-0.568431	1.18598	0.519313
0.556	-0.277073	-0.570685	1.18936	0.522694
0.557	-0.277461	-0.572939	1.19274	0.526076
0.558	-0.27785	-0.575194	1.19613	0.529457
0.559	-0.278239	-0.577448	1.19951	0.532839
0.56	-0.278627	-0.579702	1.20289	0.53622
0.561	-0.279016	-0.581957	1.20627	0.539602
0.562	-0.279405	-0.584211	1.20965	0.542983
0.563	-0.279813	-0.586465	1.21303	0.546365
0.564	-0.280241	-0.588719	1.21641	0.549746
0.565	-0.28067	-0.590974	1.21979	0.553128
0.566	-0.281098	-0.593228	1.22318	0.556509
0.567	-0.281526	-0.595482	1.22656	0.55989
0.568	-0.281955	-0.597737	1.22994	0.563272
0.569	-0.282383	-0.599991	1.23332	0.566653
0.57	-0.282811	-0.602245	1.2367	0.570035
0.571	-0.283239	-0.604499	1.24008	0.573416
0.572	-0.283668	-0.606754	1.24347	0.576798
0.573	-0.284096	-0.609008	1.24685	0.580179
0.574	-0.284524	-0.611262	1.25023	0.583561
0.575	-0.284953	-0.613516	1.25361	0.586942
0.576	-0.285381	-0.615771	1.25699	0.590323
0.577	-0.285809	-0.618025	1.26038	0.593705
0.578	-0.286237	-0.620279	1.26376	0.597086
0.579	-0.2867	-0.622534	1.26714	0.600468
0.58	-0.287168	-0.624788	1.27052	0.603849
0.581	-0.287636	-0.627042	1.2739	0.607231
0.582	-0.288104	-0.629297	1.27728	0.610612
0.583	-0.288572	-0.631551	1.28066	0.613994
0.584	-0.28904	-0.633805	1.28404	0.617375
0.585	-0.289508	-0.63606	1.28743	0.620756
0.586	-0.289976	-0.638314	1.29081	0.624138
0.587	-0.290444	-0.640568	1.29419	0.627519
0.588	-0.290912	-0.642823	1.29757	0.630901
0.589	-0.29138	-0.645077	1.30095	0.634282
0.59	-0.291848	-0.647331	1.30433	0.637664
0.591	-0.292316	-0.649586	1.30771	0.641045
0.592	-0.292784	-0.65184	1.31109	0.644427
0.593	-0.293252	-0.654094	1.31447	0.647808
0.594	-0.29373	-0.656349	1.31786	0.651189
0.595	-0.294237	-0.658603	1.32124	0.654571
0.596	-0.294745	-0.660857	1.32462	0.657952
0.597	-0.295253	-0.663111	1.328	0.661334
0.598	-0.29576	-0.665366	1.33138	0.664715
0.599	-0.296268	-0.66762	1.33476	0.668096
0.6	-0.296775	-0.669874	1.33815	0.671478
0.601	-0.297283	-0.672128	1.34153	0.674859
0.602	-0.297791	-0.674383	1.34491	0.678241
0.603	-0.298298	-0.676637	1.34829	0.681622
0.604	-0.298806	-0.678891	1.35167	0.685004
0.605	-0.299313	-0.681146	1.35505	0.688385
0.606	-0.299821	-0.6834	1.35844	0.691767
0.607	-0.300328	-0.685654	1.36182	0.695148
0.608	-0.300836	-0.687908	1.3652	0.698529
0.609	-0.301344	-0.690163	1.36858	0.701911
0.61	-0.301876	-0.692417	1.37196	0.705292
0.611	-0.302423	-0.694671	1.37534	0.708674
0.612	-0.30297	-0.696925	1.37873	0.712055
0.613	-0.303518	-0.69918	1.38211	0.715437
0.614	-0.304065	-0.701434	1.38549	0.718818
0.615	-0.304612	-0.703688	1.38887	0.7222
0.616	-0.305159	-0.705943	1.39225	0.725581
0.617	-0.305706	-0.708197	1.39563	0.728962
0.618	-0.306254	-0.710451	1.39901	0.732344
0.619	-0.306801	-0.712705	1.40239	0.735725
0.62	-0.307348	-0.71496	1.40577	0.739107
0.621	-0.307895	-0.717214	1.40916	0.742488
0.622	-0.308442	-0.719468	1.41254	0.74587
0.623	-0.30899	-0.721722	1.41592	0.749251
0.624	-0.309537	-0.723977	1.4193	0.752633
0.625	-0.310084	-0.726231	1.42268	0.756014
0.626	-0.310646	-0.725626	1.42177	0.755107
0.627	-0.311207	-0.725021	1.42087	0.7542
0.628	-0.311769	-0.724417	1.41996	0.753292
0.629	-0.312331	-0.723812	1.41905	0.752385
0.63	-0.312892	-0.723207	1.41815	0.751478
0.631	-0.313454	-0.722602	1.41724	0.75057
0.632	-0.314016	-0.721997	1.41633	0.749663
0.633	-0.314577	-0.721393	1.41542	0.748756
0.634	-0.315139	-0.720788	1.41452	0.747849
0.635	-0.315701	-0.720183	1.41361	0.746941
0.636	-0.316262	-0.719578	1.4127	0.746034
0.637	-0.316824	-0.718973	1.4118	0.745127
0.638	-0.317386	-0.718369	1.41089	0.74422
0.639	-0.317947	-0.717764	1.40998	0.743312
0.64	-0.318509	-0.717159	1.40908	0.742405
0.641	-0.319067	-0.716554	1.40817	0.741498
0.642	-0.319618	-0.715949	1.40726	0.740591
0.643	-0.320169	-0.715345	1.40635	0.739683
0.644	-0.32072	-0.71474	1.40545	0.738776
0.645	-0.321271	-0.714135	1.40454	0.737869
0.646	-0.321822	-0.71353	1.40363	0.736962
0.647	-0.322373	-0.712925	1.40272	0.736055
0.648	-0.322924	-0.712321	1.40182	0.735147
0.649	-0.323475	-0.711716	1.40091	0.73424
0.65	-0.324027	-0.711111	1.4	0.733333
0.651	-0.324578	-0.710506	1.39909	0.732426
0.652	-0.325129	-0.709901	1.39819	0.731519
0.653	-0.32568	-0.709297	1.39728	0.730611
0.654	-0.326231	-0.708692	1.39637	0.729704
0.655	-0.326782	-0.708087	1.39546	0.728797
0.656	-0.327333	-0.707482	1.39456	0.72789
0.657	-0.327876	-0.706877	1.39365	0.726983
0.658	-0.328417	-0.706273	1.39274	0.726075
0.659	-0.328957	-0.705668	1.39183	0.725168
0.66	-0.329498	-0.705063	1.39093	0.724261
0.661	-0.330038	-0.704458	1.39002	0.723354
0.662	-0.330578	-0.703853	1.38911	0.722447
0.663	-0.331119	-0.703249	1.3882	0.721539
0.664	-0.331659	-0.702644	1.3873	0.720632
0.665	-0.3322	-0.702039	1.38639	0.719725
0.666	-0.33274	-0.701434	1.38548	0.718818
0.667	-0.33328	-0.700829	1.38457	0.717911
0.668	-0.333821	-0.700225	1.38367	0.717003
0.669	-0.334361	-0.69962	1.38276	0.716096
0.67	-0.334902	-0.699015	1.38185	0.715189
0.671	-0.335442	-0.69841	1.38094	0.714282
0.672	-0.335981	-0.697805	1.38004	0.713375
0.673	-0.336511	-0.697201	1.37913	0.712467
0.674	-0.337041	-0.696596	1.37822	0.71156
0.675	-0.337571	-0.695991	1.37732	0.710653
0.676	-0.3381	-0.695386	1.37641	0.709746
0.677	-0.33863	-0.694781	1.3755	0.708839
0.678	-0.33916	-0.694177	1.3746	0.707931
0.679	-0.33969	-0.693572	1.37369	0.707024
0.68	-0.34022	-0.692967	1.37278	0.706117
0.681	-0.340749	-0.692362	1.37187	0.70521
0.682	-0.341279	-0.691757	1.37097	0.704303
0.683	-0.341809	-0.691153	1.37006	0.703395
0.684	-0.342339	-0.690548	1.36915	0.702488
0.685	-0.342869	-0.689943	1.36825	0.701581
0.686	-0.343398	-0.689338	1.36734	0.700674
0.687	-0.343928	-0.688733	1.36643	0.699767
0.688	-0.344453	-0.688129	1.36553	0.698859
0.689	-0.344972	-0.687524	1.36462	0.697952
0.69	-0.345491	-0.686919	1.36371	0.697045
0.691	-0.34601	-0.686314	1.3628	0.696138
0.692	-0.346529	-0.685709	1.3619	0.69523
0.693	-0.347048	-0.685105	1.36099	0.694323
0.694	-0.347568	-0.6845	1.36008	0.693416
0.695	-0.348087	-0.683895	1.35917	0.692509
0.696	-0.348606	-0.68329	1.35827	0.691601
0.697	-0.349125	-0.682685	1.35736	0.690694
0.698	-0.349644	-0.682081	1.35645	0.689787
0.699	-0.350163	-0.681476	1.35554	0.688879
0.7	-0.350683	-0.680871	1.35464	0.687972
0.701	-0.351202	-0.680266	1.35373	0.687065
0.702	-0.351721	-0.679661	1.35282	0.686158
0.703	-0.35224	-0.679057	1.35191	0.68525
0.704	-0.35275	-0.678452	1.35101	0.684343
0.705	-0.353259	-0.677847	1.3501	0.683436
0.706	-0.353767	-0.677242	1.34919	0.682529
0.707	-0.354276	-0.676637	1.34829	0.681622
0.708	-0.354784	-0.676032	1.34738	0.680714
0.709	-0.355293	-0.675427	1.34647	0.679807
0.71	-0.355801	-0.674823	1.34557	0.6789
0.711	-0.35631	-0.674218	1.34466	0.677993
0.712	-0.356818	-0.673613	1.34375	0.677086
0.713	-0.357327	-0.673008	1.34284	0.676178
0.714	-0.357835	-0.672403	1.34194	0.675271
0.715	-0.358344	-0.671798	1.34103	0.674364
0.716	-0.358853	-0.671193	1.34012	0.673457
0.717	-0.359361	-0.670588	1.33922	0.67255
0.718	-0.35987	-0.669984	1.33831	0.671642
0.719	-0.360375	-0.669379	1.3374	0.670735
0.72	-0.360873	-0.668774	1.3365	0.669828
0.721	-0.361371	-0.668169	1.33559	0.668921
0.722	-0.361869	-0.667564	1.33468	0.668014
0.723	-0.362367	-0.66696	1.33377	0.667106
0.724	-0.362865	-0.666355	1.33287	0.666199
0.725	-0.363363	-0.66575	1.33196	0.665292
0.726	-0.363861	-0.665145	1.33105	0.664385
0.727	-0.364359	-0.66454	1.33014	0.663478
0.728	-0.364857	-0.663936	1.32924	0.66257
0.729	-0.365355	-0.663331	1.32833	0.661663
0.73	-0.365853	-0.662726	1.32742	0.660756
0.731	-0.366351	-0.662121	1.32651	0.659849
0.732	-0.366848	-0.661516	1.32561	0.658942
0.733	-0.367346	-0.660912	1.3247	0.658034
0.734	-0.367844	-0.660307	1.32379	0.657127
0.735	-0.368336	-0.659702	1.32288	0.65622
0.736	-0.368823	-0.659097	1.32198	0.655313
0.737	-0.36931	-0.658492	1.32107	0.654406
0.738	-0.369797	-0.657888	1.32016	0.653498
0.739	-0.370284	-0.657283	1.31926	0.652591
0.74	-0.370772	-0.656678	1.31835	0.651684
0.741	-0.371259	-0.656073	1.31744	0.650777
0.742	-0.371746	-0.655468	1.31654	0.64987
0.743	-0.372233	-0.654864	1.31563	0.648962
0.744	-0.372721	-0.654259	1.31472	0.648055
0.745	-0.373208	-0.653654	1.31381	0.647148
0.746	-0.373695	-0.653049	1.31291	0.646241
0.747	-0.374182	-0.652444	1.312	0.645334
0.748	-0.37467	-0.65184	1.31109	0.644426
0.749	-0.375157	-0.651235	1.31019	0.643519
0.75	-0.375644	-0.65063	1.30928	0.642612
0.751	-0.376127	-0.650795	1.30953	0.642859
0.752	-0.376611	-0.65096	1.30977	0.643107
0.753	-0.377094	-0.651125	1.31002	0.643354
0.754	-0.377578	-0.65129	1.31027	0.643602
0.755	-0.378061	-0.651455	1.31052	0.643849
0.756	-0.378545	-0.65162	1.31076	0.644097
0.757	-0.379028	-0.651784	1.31101	0.644344
0.758	-0.379512	-0.651949	1.31126	0.644591
0.759	-0.379995	-0.652114	1.3115	0.644839
0.76	-0.380479	-0.652279	1.31175	0.645086
0.761	-0.380962	-0.652444	1.312	0.645334
0.762	-0.381445	-0.652609	1.31224	0.645581
0.763	-0.381929	-0.652774	1.31249	0.645828
0.764	-0.382412	-0.652939	1.31274	0.646076
0.765	-0.382896	-0.653104	1.31299	0.646323
0.766	-0.38338	-0.653269	1.31323	0.646571
0.767	-0.383867	-0.653434	1.31348	0.646818
0.768	-0.384353	-0.653599	1.31373	0.647066
0.769	-0.384839	-0.653764	1.31398	0.647313
0.77	-0.385325	-0.653929	1.31422	0.64756
0.771	-0.385812	-0.654094	1.31447	0.647808
0.772	-0.386298	-0.654259	1.31472	0.648055
0.773	-0.386784	-0.654424	1.31497	0.648303
0.774	-0.387271	-0.654589	1.31521	0.64855
0.775	-0.387757	-0.654754	1.31546	0.648798
0.776	-0.388243	-0.654919	1.31571	0.649045
0.777	-0.388729	-0.655084	1.31596	0.649292
0.778	-0.389216	-0.655249	1.31621	0.64954
0.779	-0.389702	-0.655414	1.31645	0.649787
0.78	-0.390188	-0.655579	1.3167	0.650035
0.781	-0.390674	-0.655744	1.31695	0.650282
0.782	-0.391163	-0.655909	1.3172	0.65053
0.783	-0.391652	-0.656074	1.31744	0.650777
0.784	-0.392141	-0.656239	1.31769	0.651024
0.785	-0.392631	-0.656403	1.31794	0.651272
0.786	-0.39312	-0.656568	1.31819	0.651519
0.787	-0.393609	-0.656733	1.31843	0.651767
0.788	-0.394098	-0.656898	1.31868	0.652014
0.789	-0.394587	-0.657063	1.31893	0.652261
0.79	-0.395077	-0.657228	1.31918	0.652509
0.791	-0.395566	-0.657393	1.31942	0.652756
0.792	-0.396055	-0.657558	1.31967	0.653004
0.793	-0.396544	-0.657723	1.31992	0.653251
0.794	-0.397034	-0.657888	1.32017	0.653499
0.795	-0.397523	-0.658053	1.32042	0.653746
0.796	-0.398012	-0.658218	1.32066	0.653993
0.797	-0.398502	-0.658383	1.32091	0.654241
0.798	-0.398994	-0.658548	1.32116	0.654488
0.799	-0.399486	-0.658712	1.32141	0.654736
0.8	-0.399978	-0.658877	1.32165	0.654983
0.801	-0.40047	-0.659042	1.3219	0.655231
0.802	-0.400962	-0.659207	1.32215	0.655478
0.803	-0.401454	-0.659372	1.32239	0.655725
0.804	-0.401946	-0.659537	1.32264	0.655973
0.805	-0.402438	-0.659702	1.32289	0.65622
0.806	-0.40293	-0.659867	1.32313	0.656468
0.807	-0.403422	-0.660032	1.32338	0.656715
0.808	-0.403915	-0.660197	1.32363	0.656963
0.809	-0.404407	-0.660362	1.32388	0.65721
0.81	-0.404899	-0.660527	1.32412	0.657457
0.811	-0.405391	-0.660692	1.32437	0.657705
0.812	-0.405883	-0.660856	1.32462	0.657952
0.813	-0.406377	-0.661021	1.32486	0.6582
0.814	-0.406872	-0.661186	1.32511	0.658447
0.815	-0.407367	-0.661351	1.32536	0.658695
0.816	-0.407862	-0.661516	1.32561	0.658942
0.817	-0.408357	-0.661681	1.32585	0.659189
0.818	-0.408852	-0.661846	1.3261	0.659437
0.819	-0.409347	-0.662011	1.32635	0.659684
0.82	-0.409842	-0.662176	1.3266	0.659932
0.821	-0.410337	-0.662341	1.32685	0.660179
0.822	-0.410832	-0.662506	1.32709	0.660427
0.823	-0.411327	-0.662671	1.32734	0.660674
0.824	-0.411822	-0.662836	1.32759	0.660921
0.825	-0.412317	-0.663001	1.32784	0.661169
0.826	-0.412812	-0.663166	1.32808	0.661416
0.827	-0.413307	-0.663331	1.32833	0.661664
0.828	-0.413802	-0.663496	1.32858	0.661911
0.829	-0.4143	-0.663661	1.32883	0.662158
0.83	-0.414797	-0.663826	1.32907	0.662406
0.831	-0.415295	-0.663991	1.32932	0.662653
0.832	-0.415793	-0.664156	1.32957	0.662901
0.833	-0.416291	-0.664321	1.32981	0.663148
0.834	-0.416789	-0.664486	1.33006	0.663396
0.835	-0.417287	-0.664651	1.33031	0.663643
0.836	-0.417785	-0.664816	1.33056	0.66389
0.837	-0.418282	-0.664981	1.3308	0.664138
0.838	-0.41878	-0.665146	1.33105	0.664385
0.839	-0.419278	-0.665311	1.3313	0.664633
0.84	-0.419776	-0.665476	1.33154	0.66488
0.841	-0.420274	-0.66564	1.33179	0.665128
0.842	-0.420772	-0.665805	1.33204	0.665375
0.843	-0.42127	-0.66597	1.33228	0.665622
0.844	-0.421768	-0.666135	1.33253	0.66587
0.845	-0.422269	-0.6663	1.33278	0.666117
0.846	-0.42277	-0.666465	1.33303	0.666365
0.847	-0.423271	-0.66663	1.33327	0.666612
0.848	-0.423772	-0.666795	1.33352	0.66686
0.849	-0.424273	-0.66696	1.33377	0.667107
0.85	-0.424773	-0.667125	1.33402	0.667354
0.851	-0.425274	-0.66729	1.33427	0.667602
0.852	-0.425775	-0.667455	1.33451	0.667849
0.853	-0.426276	-0.66762	1.33476	0.668097
0.854	-0.426777	-0.667785	1.33501	0.668344
0.855	-0.427278	-0.667949	1.33526	0.668591
0.856	-0.427779	-0.668114	1.3355	0.668839
0.857	-0.428279	-0.668279	1.33575	0.669086
0.858	-0.42878	-0.668444	1.336	0.669334
0.859	-0.429281	-0.668609	1.33625	0.669581
0.86	-0.429784	-0.668774	1.33649	0.669829
0.861	-0.430287	-0.668939	1.33674	0.670076
0.862	-0.430791	-0.669104	1.33699	0.670323
0.863	-0.431295	-0.669269	1.33724	0.670571
0.864	-0.431799	-0.669434	1.33749	0.670818
0.865	-0.432302	-0.669599	1.33773	0.671066
0.866	-0.432806	-0.669764	1.33798	0.671313
0.867	-0.43331	-0.669929	1.33823	0.671561
0.868	-0.433813	-0.670094	1.33848	0.671808
0.869	-0.434317	-0.670259	1.33872	0.672055
0.87	-0.434821	-0.670424	1.33897	0.672303
0.871	-0.435324	-0.670589	1.33922	0.67255
0.872	-0.435828	-0.670754	1.33947	0.672798
0.873	-0.436332	-0.670919	1.33971	0.673045
0.874	-0.436835	-0.671084	1.33996	0.673293
0.875	-0.437339	-0.671249	1.34021	0.67354
0.876	-0.437844	-0.671194	1.34013	0.673458
0.877	-0.438348	-0.671139	1.34004	0.673375
0.878	-0.438853	-0.671084	1.33996	0.673293
0.879	-0.439358	-0.671029	1.33988	0.67321
0.88	-0.439862	-0.670974	1.3398	0.673128
0.881	-0.440367	-0.670919	1.33971	0.673045
0.882	-0.440872	-0.670864	1.33963	0.672963
0.883	-0.441376	-0.670809	1.33955	0.67288
0.884	-0.441881	-0.670754	1.33947	0.672798
0.885	-0.442385	-0.670699	1.33938	0.672715
0.886	-0.44289	-0.670644	1.3393	0.672633
0.887	-0.443395	-0.670588	1.33922	0.67255
0.888	-0.443899	-0.670533	1.33914	0.672468
0.889	-0.444404	-0.670478	1.33905	0.672385
0.89	-0.444909	-0.670423	1.33897	0.672303
0.891	-0.445413	-0.670368	1.33889	0.67222
0.892	-0.445917	-0.670313	1.33881	0.672138
0.893	-0.44642	-0.670258	1.33872	0.672055
0.894	-0.446924	-0.670203	1.33864	0.671973
0.895	-0.447428	-0.670148	1.33856	0.67189
0.896	-0.447932	-0.670093	1.33848	0.671808
0.897	-0.448435	-0.670039	1.33839	0.671725
0.898	-0.448939	-0.669984	1.33831	0.671643
0.899	-0.449443	-0.669929	1.33823	0.67156
0.9	-0.449947	-0.669874	1.33815	0.671478
0.901	-0.45045	-0.669819	1.33806	0.671395
0.902	-0.450954	-0.669764	1.33798	0.671313
0.903	-0.451458	-0.669709	1.3379	0.67123
0.904	-0.451962	-0.669654	1.33782	0.671148
0.905	-0.452465	-0.669599	1.33773	0.671065
0.906	-0.452969	-0.669544	1.33765	0.670983
0.907	-0.453472	-0.669489	1.33757	0.6709
0.908	-0.453975	-0.669434	1.33749	0.670818
0.909	-0.454477	-0.669379	1.3374	0.670735
0.91	-0.45498	-0.669324	1.33732	0.670653
0.911	-0.455483	-0.669269	1.33724	0.67057
0.912	-0.455986	-0.669214	1.33716	0.670488
0.913	-0.456488	-0.669159	1.33707	0.670406
0.914	-0.456991	-0.669104	1.33699	0.670323
0.915	-0.457494	-0.669049	1.33691	0.670241
0.916	-0.457997	-0.668994	1.33683	0.670158
0.917	-0.458499	-0.668939	1.33674	0.670076
0.918	-0.459002	-0.668884	1.33666	0.669993
0.919	-0.459505	-0.668829	1.33658	0.669911
0.92	-0.460007	-0.668774	1.33649	0.669829
0.921	-0.46051	-0.668719	1.33641	0.669746
0.922	-0.461013	-0.668664	1.33633	0.669664
0.923	-0.461514	-0.668609	1.33625	0.669581
0.924	-0.462016	-0.668554	1.33616	0.669499
0.925	-0.462518	-0.668499	1.33608	0.669416
0.926	-0.46302	-0.668444	1.336	0.669334
0.927	-0.463522	-0.668389	1.33592	0.669251
0.928	-0.464023	-0.668334	1.33583	0.669169
0.929	-0.464525	-0.668279	1.33575	0.669086
0.93	-0.465027	-0.668224	1.33567	0.669004
0.931	-0.465529	-0.668169	1.33559	0.668921
0.932	-0.46603	-0.668114	1.3355	0.668839
0.933	-0.466532	-0.668059	1.33542	0.668756
0.934	-0.467034	-0.668004	1.33534	0.668674
0.935	-0.467536	-0.667949	1.33526	0.668591
0.936	-0.468037	-0.667894	1.33517	0.668509
0.937	-0.468539	-0.667839	1.33509	0.668426
0.938	-0.46904	-0.667785	1.33501	0.668344
0.939	-0.469541	-0.66773	1.33493	0.668261
0.94	-0.470042	-0.667675	1.33484	0.668179
0.941	-0.470543	-0.66762	1.33476	0.668096
0.942	-0.471044	-0.667565	1.33468	0.668014
0.943	-0.471544	-0.66751	1.3346	0.667931
0.944	-0.472045	-0.667455	1.33451	0.667849
0.945	-0.472546	-0.6674	1.33443	0.667766
0.946	-0.473047	-0.667345	1.33435	0.667684
0.947	-0.473548	-0.66729	1.33427	0.667601
0.948	-0.474048	-0.667235	1.33418	0.667519
0.949	-0.474549	-0.66718	1.3341	0.667436
0.95	-0.47505	-0.667125	1.33402	0.667354
0.951	-0.475551	-0.66707	1.33394	0.667271
0.952	-0.476052	-0.667015	1.33385	0.667189
0.953	-0.476552	-0.66696	1.33377	0.667106
0.954	-0.477052	-0.666905	1.33369	0.667024
0.955	-0.477552	-0.66685	1.33361	0.666941
0.956	-0.478052	-0.666795	1.33352	0.666859
0.957	-0.478552	-0.66674	1.33344	0.666777
0.958	-0.479052	-0.666685	1.33336	0.666694
0.959	-0.479552	-0.66663	1.33327	0.666612
0.96	-0.480051	-0.666575	1.33319	0.666529
0.961	-0.480551	-0.66652	1.33311	0.666447
0.962	-0.481051	-0.666465	1.33303	0.666364
0.963	-0.481551	-0.66641	1.33294	0.666282
0.964	-0.482051	-0.666355	1.33286	0.6662
0.965	-0.482551	-0.6663	1.33278	0.666117
0.966	-0.48305	-0.666245	1.3327	0.666035
0.967	-0.48355	-0.66619	1.33261	0.665952
0.968	-0.48405	-0.666135	1.33253	0.66587
0.969	-0.48455	-0.66608	1.33245	0.665787
0.97	-0.485049	-0.666025	1.33237	0.665705
0.971	-0.485547	-0.66597	1.33229	0.665622
0.972	-0.486046	-0.665915	1.3322	0.66554
0.973	-0.486545	-0.66586	1.33212	0.665457
0.974	-0.487044	-0.665805	1.33204	0.665375
0.975	-0.487543	-0.66575	1.33196	0.665292
0.976	-0.488042	-0.665695	1.33188	0.66521
0.977	-0.488541	-0.66564	1.33179	0.665127
0.978	-0.48904	-0.665585	1.33171	0.665045
0.979	-0.489539	-0.665531	1.33163	0.664962
0.98	-0.490037	-0.665475	1.33155	0.66488
0.981	-0.490536	-0.665421	1.33147	0.664797
0.982	-0.491035	-0.665366	1.33138	0.664715
0.983	-0.491534	-0.665311	1.3313	0.664632
0.984	-0.492033	-0.665256	1.33122	0.66455
0.985	-0.492531	-0.665201	1.33114	0.664467
0.986	-0.493029	-0.665146	1.33106	0.664385
0.987	-0.493527	-0.665091	1.33097	0.664302
0.988	-0.494025	-0.665036	1.33089	0.66422
0.989	-0.494523	-0.664981	1.33081	0.664137
0.99	-0.495021	-0.664926	1.33073	0.664055
0.991	-0.495519	-0.664871	1.33064	0.663972
0.992	-0.496017	-0.664816	1.33056	0.66389
0.993	-0.496515	-0.664761	1.33048	0.663807
0.994	-0.497012	-0.664706	1.3304	0.663725
0.995	-0.49751	-0.664651	1.33031	0.663642
0.996	-0.498008	-0.664596	1.33023	0.66356
0.997	-0.498506	-0.664541	1.33015	0.663477
0.998	-0.499004	-0.664486	1.33007	0.663395
0.999	-0.499502	-0.664431	1.32998	0.663312
1	-0.5	-0.664376	1.3299	0.66323
