#y	Displacement_Y	Pressure	Stress_XX	Stress_ZZ
0	-5.40968E-23	-0.349206	0.690476	0.357143
0.001	-0.000529018	-0.349016	0.69019	0.356857
0.002	-0.00105804	-0.348825	0.689905	0.356572
0.003	-0.00158705	-0.348635	0.689619	0.356286
0.004	-0.00211607	-0.348444	0.689333	0.356
0.005	-0.00264509	-0.348254	0.689048	0.355714
0.006	-0.00317411	-0.348063	0.688762	0.355429
0.007	-0.00370312	-0.347873	0.688476	0.355143
0.008	-0.00423214	-0.347682	0.68819	0.354857
0.009	-0.00476116	-0.347492	0.687905	0.354571
0.01	-0.00529018	-0.347301	0.687619	0.354286
0.011	-0.00581919	-0.347111	0.687333	0.354
0.012	-0.00634821	-0.34692	0.687048	0.353714
0.013	-0.00687723	-0.34673	0.686762	0.353429
0.014	-0.00740625	-0.346539	0.686476	0.353143
0.015	-0.00793526	-0.346349	0.686191	0.352857
0.016	-0.00846428	-0.346159	0.685905	0.352571
0.017	-0.0089933	-0.345968	0.685619	0.352286
0.018	-0.00952232	-0.345778	0.685333	0.352
0.019	-0.0100513	-0.345587	0.685048	0.351714
0.02	-0.0105804	-0.345397	0.684762	0.351428
0.021	-0.0111094	-0.345206	0.684476	0.351143
0.022	-0.0116384	-0.345016	0.684191	0.350857
0.023	-0.0121674	-0.344825	0.683905	0.350571
0.024	-0.0126964	-0.344635	0.683619	0.350286
0.025	-0.0132254	-0.344444	0.683334	0.35
0.026	-0.0137545	-0.344254	0.683048	0.349714
0.027	-0.0142835	-0.344063	0.682762	0.349428
0.028	-0.0148125	-0.343873	0.682477	0.349143
0.029	-0.0153415	-0.343683	0.682191	0.348857
0.03	-0.0158705	-0.343492	0.681905	0.348571
0.031	-0.0163995	-0.343302	0.681619	0.348285
0.032	-0.0169185	-0.343111	0.681334	0.348
0.033	-0.0174341	-0.342921	0.681048	0.347714
0.034	-0.0179498	-0.34273	0.680762	0.347428
0.035	-0.0184654	-0.34254	0.680477	0.347143
0.036	-0.018981	-0.342349	0.680191	0.346857
0.037	-0.0194966	-0.342159	0.679905	0.346571
0.038	-0.0200123	-0.341968	0.679619	0.346286
0.039	-0.0205279	-0.341778	0.679334	0.346
0.04	-0.0210435	-0.341587	0.679048	0.345714
0.041	-0.0215592	-0.341397	0.678762	0.345428
0.042	-0.0220748	-0.341207	0.678476	0.345143
0.043	-0.0225904	-0.341016	0.678191	0.344857
0.044	-0.023106	-0.340826	0.677905	0.344571
0.045	-0.0236217	-0.340635	0.677619	0.344286
0.046	-0.0241373	-0.340445	0.677334	0.344
0.047	-0.0246529	-0.340254	0.677048	0.343714
0.048	-0.0251685	-0.340064	0.676762	0.343429
0.049	-0.0256842	-0.339873	0.676476	0.343143
0.05	-0.0261998	-0.339683	0.676191	0.342857
0.051	-0.0267154	-0.339492	0.675905	0.342571
0.052	-0.027231	-0.339302	0.675619	0.342286
0.053	-0.0277467	-0.339111	0.675333	0.342
0.054	-0.0282623	-0.338921	0.675048	0.341714
0.055	-0.0287779	-0.33873	0.674762	0.341429
0.056	-0.0292935	-0.33854	0.674476	0.341143
0.057	-0.0298092	-0.33835	0.674191	0.340857
0.058	-0.0303248	-0.338159	0.673905	0.340572
0.059	-0.0308404	-0.337969	0.673619	0.340286
0.06	-0.031356	-0.337778	0.673333	0.34
0.061	-0.0318717	-0.337588	0.673048	0.339715
0.062	-0.0323873	-0.337397	0.672762	0.339429
0.063	-0.0328962	-0.337207	0.672476	0.339143
0.064	-0.0333984	-0.337016	0.67219	0.338857
0.065	-0.0339007	-0.336826	0.671905	0.338572
0.066	-0.0344029	-0.336635	0.671619	0.338286
0.067	-0.0349051	-0.336445	0.671333	0.338
0.068	-0.0354074	-0.336254	0.671047	0.337714
0.069	-0.0359096	-0.336064	0.670762	0.337429
0.07	-0.0364118	-0.335873	0.670476	0.337143
0.071	-0.0369141	-0.335683	0.67019	0.336857
0.072	-0.0374163	-0.335492	0.669905	0.336572
0.073	-0.0379185	-0.335302	0.669619	0.336286
0.074	-0.0384207	-0.335111	0.669333	0.336
0.075	-0.038923	-0.334921	0.669047	0.335714
0.076	-0.0394252	-0.33473	0.668762	0.335429
0.077	-0.0399274	-0.33454	0.668476	0.335143
0.078	-0.0404297	-0.334349	0.66819	0.334857
0.079	-0.0409319	-0.334159	0.667904	0.334571
0.08	-0.0414341	-0.333968	0.667619	0.334286
0.081	-0.0419364	-0.333778	0.667333	0.334
0.082	-0.0424386	-0.333587	0.667047	0.333714
0.083	-0.0429408	-0.333397	0.666762	0.333429
0.084	-0.0434431	-0.333206	0.666476	0.333143
0.085	-0.0439453	-0.333016	0.66619	0.332857
0.086	-0.0444475	-0.332825	0.665904	0.332571
0.087	-0.0449497	-0.332635	0.665619	0.332286
0.088	-0.045452	-0.332444	0.665333	0.332
0.089	-0.0459542	-0.332254	0.665047	0.331714
0.09	-0.0464564	-0.332063	0.664761	0.331428
0.091	-0.0469587	-0.331873	0.664476	0.331143
0.092	-0.0474609	-0.331682	0.66419	0.330857
0.093	-0.0479631	-0.331492	0.663904	0.330571
0.094	-0.048462	-0.331301	0.663619	0.330286
0.095	-0.0489509	-0.331111	0.663333	0.33
0.096	-0.0494397	-0.33092	0.663047	0.329714
0.097	-0.0499285	-0.33073	0.662761	0.329428
0.098	-0.0504174	-0.33054	0.662476	0.329143
0.099	-0.0509062	-0.330349	0.66219	0.328857
0.1	-0.0513951	-0.330159	0.661904	0.328571
0.101	-0.0518839	-0.329968	0.661619	0.328286
0.102	-0.0523727	-0.329778	0.661333	0.328
0.103	-0.0528616	-0.329587	0.661047	0.327714
0.104	-0.0533504	-0.329397	0.660762	0.327429
0.105	-0.0538393	-0.329206	0.660476	0.327143
0.106	-0.0543281	-0.329016	0.66019	0.326857
0.107	-0.054817	-0.328825	0.659905	0.326572
0.108	-0.0553058	-0.328635	0.659619	0.326286
0.109	-0.0557946	-0.328444	0.659333	0.326
0.11	-0.0562835	-0.328254	0.659047	0.325714
0.111	-0.0567723	-0.328063	0.658762	0.325429
0.112	-0.0572612	-0.327873	0.658476	0.325143
0.113	-0.05775	-0.327683	0.65819	0.324857
0.114	-0.0582388	-0.327492	0.657905	0.324572
0.115	-0.0587277	-0.327302	0.657619	0.324286
0.116	-0.0592165	-0.327111	0.657333	0.324
0.117	-0.0597054	-0.326921	0.657048	0.323715
0.118	-0.0601942	-0.32673	0.656762	0.323429
0.119	-0.060683	-0.32654	0.656476	0.323143
0.12	-0.0611719	-0.326349	0.656191	0.322857
0.121	-0.0616607	-0.326159	0.655905	0.322572
0.122	-0.0621496	-0.325968	0.655619	0.322286
0.123	-0.0626384	-0.325778	0.655333	0.322
0.124	-0.0631273	-0.325587	0.655048	0.321715
0.125	-0.0636161	-0.325397	0.654762	0.321429
0.126	-0.0640915	-0.325207	0.654476	0.321143
0.127	-0.064567	-0.325016	0.654191	0.320858
0.128	-0.0650424	-0.324826	0.653905	0.320572
0.129	-0.0655179	-0.324635	0.653619	0.320286
0.13	-0.0659933	-0.324445	0.653333	0.32
0.131	-0.0664688	-0.324254	0.653048	0.319715
0.132	-0.0669442	-0.324064	0.652762	0.319429
0.133	-0.0674197	-0.323873	0.652476	0.319143
0.134	-0.0678951	-0.323683	0.65219	0.318857
0.135	-0.0683706	-0.323492	0.651905	0.318572
0.136	-0.068846	-0.323302	0.651619	0.318286
0.137	-0.0693215	-0.323111	0.651333	0.318
0.138	-0.0697969	-0.322921	0.651048	0.317715
0.139	-0.0702723	-0.32273	0.650762	0.317429
0.14	-0.0707478	-0.32254	0.650476	0.317143
0.141	-0.0712232	-0.322349	0.65019	0.316857
0.142	-0.0716987	-0.322159	0.649905	0.316572
0.143	-0.0721741	-0.321968	0.649619	0.316286
0.144	-0.0726496	-0.321778	0.649333	0.316
0.145	-0.073125	-0.321587	0.649047	0.315714
0.146	-0.0736005	-0.321397	0.648762	0.315429
0.147	-0.0740759	-0.321206	0.648476	0.315143
0.148	-0.0745514	-0.321016	0.64819	0.314857
0.149	-0.0750268	-0.320825	0.647905	0.314572
0.15	-0.0755023	-0.320635	0.647619	0.314286
0.151	-0.0759777	-0.320444	0.647333	0.314
0.152	-0.0764531	-0.320254	0.647047	0.313714
0.153	-0.0769286	-0.320063	0.646762	0.313429
0.154	-0.077404	-0.319873	0.646476	0.313143
0.155	-0.0778795	-0.319682	0.64619	0.312857
0.156	-0.0783549	-0.319492	0.645904	0.312571
0.157	-0.0788203	-0.319301	0.645619	0.312286
0.158	-0.0792824	-0.319111	0.645333	0.312
0.159	-0.0797444	-0.31892	0.645047	0.311714
0.16	-0.0802065	-0.31873	0.644762	0.311429
0.161	-0.0806685	-0.318539	0.644476	0.311143
0.162	-0.0811306	-0.318349	0.64419	0.310857
0.163	-0.0815926	-0.318158	0.643905	0.310571
0.164	-0.0820547	-0.317968	0.643619	0.310286
0.165	-0.0825168	-0.317777	0.643333	0.31
0.166	-0.0829788	-0.317587	0.643047	0.309714
0.167	-0.0834408	-0.317397	0.642762	0.309428
0.168	-0.0839029	-0.317206	0.642476	0.309143
0.169	-0.084365	-0.317016	0.64219	0.308857
0.17	-0.084827	-0.316825	0.641905	0.308571
0.171	-0.0852891	-0.316635	0.641619	0.308286
0.172	-0.0857511	-0.316444	0.641333	0.308
0.173	-0.0862131	-0.316254	0.641048	0.307714
0.174	-0.0866752	-0.316063	0.640762	0.307428
0.175	-0.0871373	-0.315873	0.640476	0.307143
0.176	-0.0875993	-0.315682	0.640191	0.306857
0.177	-0.0880614	-0.315492	0.639905	0.306571
0.178	-0.0885234	-0.315301	0.639619	0.306285
0.179	-0.0889855	-0.315111	0.639333	0.306
0.18	-0.0894475	-0.31492	0.639048	0.305714
0.181	-0.0899096	-0.31473	0.638762	0.305428
0.182	-0.0903716	-0.31454	0.638476	0.305142
0.183	-0.0908337	-0.314349	0.638191	0.304857
0.184	-0.0912957	-0.314159	0.637905	0.304571
0.185	-0.0917578	-0.313968	0.637619	0.304285
0.186	-0.0922198	-0.313778	0.637334	0.304
0.187	-0.0926819	-0.313587	0.637048	0.303714
0.188	-0.0931372	-0.313397	0.636762	0.303428
0.189	-0.0935859	-0.313206	0.636476	0.303142
0.19	-0.0940346	-0.313016	0.636191	0.302857
0.191	-0.0944833	-0.312825	0.635905	0.302571
0.192	-0.0949319	-0.312635	0.635619	0.302285
0.193	-0.0953806	-0.312444	0.635333	0.302
0.194	-0.0958293	-0.312254	0.635048	0.301714
0.195	-0.096278	-0.312064	0.634762	0.301428
0.196	-0.0967266	-0.311873	0.634476	0.301143
0.197	-0.0971753	-0.311683	0.634191	0.300857
0.198	-0.097624	-0.311492	0.633905	0.300571
0.199	-0.0980727	-0.311302	0.633619	0.300285
0.2	-0.0985213	-0.311111	0.633333	0.3
0.201	-0.09897	-0.310921	0.633048	0.299714
0.202	-0.0994187	-0.31073	0.632762	0.299428
0.203	-0.0998674	-0.31054	0.632476	0.299143
0.204	-0.100316	-0.310349	0.632191	0.298857
0.205	-0.100765	-0.310159	0.631905	0.298571
0.206	-0.101213	-0.309968	0.631619	0.298286
0.207	-0.101662	-0.309778	0.631333	0.298
0.208	-0.102111	-0.309587	0.631048	0.297714
0.209	-0.102559	-0.309397	0.630762	0.297429
0.21	-0.103008	-0.309207	0.630476	0.297143
0.211	-0.103457	-0.309016	0.63019	0.296857
0.212	-0.103905	-0.308826	0.629905	0.296571
0.213	-0.104354	-0.308635	0.629619	0.296286
0.214	-0.104803	-0.308445	0.629333	0.296
0.215	-0.105251	-0.308254	0.629047	0.295714
0.216	-0.1057	-0.308064	0.628762	0.295429
0.217	-0.106149	-0.307873	0.628476	0.295143
0.218	-0.106597	-0.307683	0.62819	0.294857
0.219	-0.107043	-0.307492	0.627905	0.294572
0.22	-0.107478	-0.307302	0.627619	0.294286
0.221	-0.107913	-0.307111	0.627333	0.294
0.222	-0.108349	-0.306921	0.627047	0.293714
0.223	-0.108784	-0.30673	0.626762	0.293429
0.224	-0.109219	-0.30654	0.626476	0.293143
0.225	-0.109654	-0.306349	0.62619	0.292857
0.226	-0.11009	-0.306159	0.625905	0.292571
0.227	-0.110525	-0.305968	0.625619	0.292286
0.228	-0.11096	-0.305778	0.625333	0.292
0.229	-0.111395	-0.305587	0.625048	0.291714
0.23	-0.111831	-0.305397	0.624762	0.291429
0.231	-0.112266	-0.305206	0.624476	0.291143
0.232	-0.112701	-0.305016	0.624191	0.290857
0.233	-0.113137	-0.304825	0.623905	0.290571
0.234	-0.113572	-0.304635	0.623619	0.290286
0.235	-0.114007	-0.304444	0.623333	0.29
0.236	-0.114442	-0.304254	0.623048	0.289714
0.237	-0.114878	-0.304063	0.622762	0.289428
0.238	-0.115313	-0.303873	0.622476	0.289143
0.239	-0.115748	-0.303682	0.622191	0.288857
0.24	-0.116183	-0.303492	0.621905	0.288571
0.241	-0.116619	-0.303301	0.621619	0.288286
0.242	-0.117054	-0.303111	0.621334	0.288
0.243	-0.117489	-0.30292	0.621048	0.287714
0.244	-0.117924	-0.30273	0.620762	0.287428
0.245	-0.11836	-0.302539	0.620476	0.287143
0.246	-0.118795	-0.302349	0.620191	0.286857
0.247	-0.11923	-0.302158	0.619905	0.286571
0.248	-0.119665	-0.301968	0.619619	0.286285
0.249	-0.120101	-0.301777	0.619334	0.286
0.25	-0.120536	-0.301587	0.619048	0.285714
0.251	-0.120985	-0.302158	0.619905	0.286571
0.252	-0.121433	-0.30273	0.620762	0.287428
0.253	-0.121882	-0.303301	0.621619	0.288285
0.254	-0.122331	-0.303873	0.622477	0.289143
0.255	-0.122779	-0.304444	0.623334	0.29
0.256	-0.123228	-0.305016	0.624191	0.290857
0.257	-0.123676	-0.305587	0.625048	0.291714
0.258	-0.124125	-0.306158	0.625905	0.292571
0.259	-0.124574	-0.30673	0.626762	0.293428
0.26	-0.125022	-0.307301	0.627619	0.294286
0.261	-0.125471	-0.307873	0.628476	0.295143
0.262	-0.12592	-0.308444	0.629333	0.296
0.263	-0.126368	-0.309016	0.630191	0.296857
0.264	-0.126817	-0.309587	0.631048	0.297714
0.265	-0.127266	-0.310158	0.631905	0.298571
0.266	-0.127714	-0.31073	0.632762	0.299428
0.267	-0.128163	-0.311301	0.633619	0.300286
0.268	-0.128612	-0.311873	0.634476	0.301143
0.269	-0.12906	-0.312444	0.635333	0.302
0.27	-0.129509	-0.313015	0.63619	0.302857
0.271	-0.129957	-0.313587	0.637048	0.303714
0.272	-0.130406	-0.314158	0.637905	0.304571
0.273	-0.130855	-0.31473	0.638762	0.305429
0.274	-0.131303	-0.315301	0.639619	0.306286
0.275	-0.131752	-0.315873	0.640476	0.307143
0.276	-0.132201	-0.316444	0.641333	0.308
0.277	-0.132649	-0.317015	0.64219	0.308857
0.278	-0.133098	-0.317587	0.643047	0.309714
0.279	-0.133547	-0.318158	0.643905	0.310571
0.28	-0.133995	-0.31873	0.644762	0.311429
0.281	-0.134444	-0.319301	0.645619	0.312286
0.282	-0.134923	-0.319873	0.646476	0.313143
0.283	-0.135412	-0.320444	0.647333	0.314
0.284	-0.1359	-0.321016	0.64819	0.314857
0.285	-0.136389	-0.321587	0.649047	0.315714
0.286	-0.136878	-0.322158	0.649904	0.316571
0.287	-0.137367	-0.32273	0.650762	0.317429
0.288	-0.137856	-0.323301	0.651619	0.318286
0.289	-0.138345	-0.323873	0.652476	0.319143
0.29	-0.138834	-0.324444	0.653333	0.32
0.291	-0.139322	-0.325016	0.65419	0.320857
0.292	-0.139811	-0.325587	0.655047	0.321714
0.293	-0.1403	-0.326159	0.655905	0.322572
0.294	-0.140789	-0.32673	0.656762	0.323429
0.295	-0.141278	-0.327302	0.657619	0.324286
0.296	-0.141767	-0.327873	0.658476	0.325143
0.297	-0.142256	-0.328444	0.659333	0.326
0.298	-0.142744	-0.329016	0.66019	0.326857
0.299	-0.143233	-0.329587	0.661047	0.327714
0.3	-0.143722	-0.330159	0.661905	0.328572
0.301	-0.144211	-0.33073	0.662762	0.329429
0.302	-0.1447	-0.331302	0.663619	0.330286
0.303	-0.145189	-0.331873	0.664476	0.331143
0.304	-0.145678	-0.332445	0.665333	0.332
0.305	-0.146167	-0.333016	0.66619	0.332857
0.306	-0.146655	-0.333588	0.667048	0.333715
0.307	-0.147144	-0.334159	0.667905	0.334572
0.308	-0.147633	-0.33473	0.668762	0.335429
0.309	-0.148122	-0.335302	0.669619	0.336286
0.31	-0.148611	-0.335873	0.670476	0.337143
0.311	-0.1491	-0.336445	0.671333	0.338
0.312	-0.149589	-0.337016	0.67219	0.338857
0.313	-0.150097	-0.337588	0.673048	0.339715
0.314	-0.150626	-0.338159	0.673905	0.340572
0.315	-0.151155	-0.338731	0.674762	0.341429
0.316	-0.151684	-0.339302	0.675619	0.342286
0.317	-0.152213	-0.339873	0.676476	0.343143
0.318	-0.152742	-0.340445	0.677333	0.344
0.319	-0.153271	-0.341016	0.67819	0.344857
0.32	-0.1538	-0.341588	0.679048	0.345714
0.321	-0.154329	-0.342159	0.679905	0.346572
0.322	-0.154858	-0.342731	0.680762	0.347429
0.323	-0.155387	-0.343302	0.681619	0.348286
0.324	-0.155916	-0.343873	0.682476	0.349143
0.325	-0.156445	-0.344445	0.683333	0.35
0.326	-0.156974	-0.345016	0.684191	0.350857
0.327	-0.157503	-0.345588	0.685048	0.351714
0.328	-0.158032	-0.346159	0.685905	0.352571
0.329	-0.158561	-0.346731	0.686762	0.353428
0.33	-0.15909	-0.347302	0.687619	0.354286
0.331	-0.159619	-0.347873	0.688476	0.355143
0.332	-0.160148	-0.348445	0.689333	0.356
0.333	-0.160677	-0.349016	0.690191	0.356857
0.334	-0.161206	-0.349588	0.691048	0.357714
0.335	-0.161735	-0.350159	0.691905	0.358571
0.336	-0.162264	-0.35073	0.692762	0.359428
0.337	-0.162793	-0.351302	0.693619	0.360285
0.338	-0.163322	-0.351873	0.694476	0.361143
0.339	-0.163851	-0.352445	0.695334	0.362
0.34	-0.16438	-0.353016	0.696191	0.362857
0.341	-0.164909	-0.353588	0.697048	0.363714
0.342	-0.165438	-0.354159	0.697905	0.364571
0.343	-0.165967	-0.35473	0.698762	0.365428
0.344	-0.166506	-0.355302	0.699619	0.366285
0.345	-0.167076	-0.355873	0.700476	0.367142
0.346	-0.167645	-0.356445	0.701334	0.368
0.347	-0.168214	-0.357016	0.702191	0.368857
0.348	-0.168783	-0.357588	0.703048	0.369714
0.349	-0.169352	-0.358159	0.703905	0.370571
0.35	-0.169922	-0.35873	0.704762	0.371428
0.351	-0.170491	-0.359302	0.705619	0.372285
0.352	-0.17106	-0.359873	0.706476	0.373142
0.353	-0.171629	-0.360445	0.707333	0.374
0.354	-0.172198	-0.361016	0.708191	0.374857
0.355	-0.172768	-0.361588	0.709048	0.375714
0.356	-0.173337	-0.362159	0.709905	0.376571
0.357	-0.173906	-0.36273	0.710762	0.377428
0.358	-0.174475	-0.363302	0.711619	0.378285
0.359	-0.175045	-0.363873	0.712476	0.379143
0.36	-0.175614	-0.364445	0.713333	0.38
0.361	-0.176183	-0.365016	0.71419	0.380857
0.362	-0.176752	-0.365587	0.715047	0.381714
0.363	-0.177321	-0.366159	0.715905	0.382571
0.364	-0.177891	-0.36673	0.716762	0.383428
0.365	-0.17846	-0.367302	0.717619	0.384285
0.366	-0.179029	-0.367873	0.718476	0.385143
0.367	-0.179598	-0.368445	0.719333	0.386
0.368	-0.180167	-0.369016	0.72019	0.386857
0.369	-0.180737	-0.369587	0.721047	0.387714
0.37	-0.181306	-0.370159	0.721904	0.388571
0.371	-0.181875	-0.37073	0.722762	0.389428
0.372	-0.182444	-0.371302	0.723619	0.390286
0.373	-0.183014	-0.371873	0.724476	0.391143
0.374	-0.183583	-0.372445	0.725333	0.392
0.375	-0.184152	-0.373016	0.72619	0.392857
0.376	-0.184761	-0.373587	0.727047	0.393714
0.377	-0.185371	-0.374159	0.727904	0.394571
0.378	-0.18598	-0.37473	0.728761	0.395428
0.379	-0.18659	-0.375302	0.729619	0.396286
0.38	-0.187199	-0.375873	0.730476	0.397143
0.381	-0.187808	-0.376445	0.731333	0.398
0.382	-0.188418	-0.377016	0.73219	0.398857
0.383	-0.189027	-0.377587	0.733047	0.399714
0.384	-0.189636	-0.378159	0.733904	0.400571
0.385	-0.190246	-0.37873	0.734761	0.401429
0.386	-0.190855	-0.379302	0.735619	0.402286
0.387	-0.191465	-0.379873	0.736476	0.403143
0.388	-0.192074	-0.380445	0.737333	0.404
0.389	-0.192683	-0.381016	0.73819	0.404857
0.39	-0.193293	-0.381587	0.739047	0.405714
0.391	-0.193902	-0.382159	0.739904	0.406571
0.392	-0.194511	-0.38273	0.740762	0.407429
0.393	-0.195121	-0.383302	0.741619	0.408286
0.394	-0.19573	-0.383873	0.742476	0.409143
0.395	-0.19634	-0.384444	0.743333	0.41
0.396	-0.196949	-0.385016	0.74419	0.410857
0.397	-0.197558	-0.385587	0.745047	0.411714
0.398	-0.198168	-0.386159	0.745905	0.412571
0.399	-0.198777	-0.38673	0.746762	0.413429
0.4	-0.199386	-0.387302	0.747619	0.414286
0.401	-0.199996	-0.387873	0.748476	0.415143
0.402	-0.200605	-0.388444	0.749333	0.416
0.403	-0.201215	-0.389016	0.75019	0.416857
0.404	-0.201824	-0.389587	0.751047	0.417714
0.405	-0.202433	-0.390159	0.751905	0.418572
0.406	-0.203043	-0.39073	0.752762	0.419429
0.407	-0.203682	-0.391302	0.753619	0.420286
0.408	-0.204332	-0.391873	0.754476	0.421143
0.409	-0.204981	-0.392444	0.755333	0.422
0.41	-0.205631	-0.393016	0.75619	0.422857
0.411	-0.20628	-0.393587	0.757047	0.423714
0.412	-0.20693	-0.394159	0.757905	0.424572
0.413	-0.207579	-0.39473	0.758762	0.425429
0.414	-0.208229	-0.395302	0.759619	0.426286
0.415	-0.208878	-0.395873	0.760476	0.427143
0.416	-0.209528	-0.396444	0.761333	0.428
0.417	-0.210178	-0.397016	0.76219	0.428857
0.418	-0.210827	-0.397587	0.763048	0.429715
0.419	-0.211477	-0.398159	0.763905	0.430572
0.42	-0.212126	-0.39873	0.764762	0.431429
0.421	-0.212776	-0.399301	0.765619	0.432286
0.422	-0.213425	-0.399873	0.766476	0.433143
0.423	-0.214075	-0.400444	0.767333	0.434
0.424	-0.214724	-0.401016	0.76819	0.434857
0.425	-0.215374	-0.401587	0.769048	0.435715
0.426	-0.216023	-0.402159	0.769905	0.436572
0.427	-0.216673	-0.40273	0.770762	0.437429
0.428	-0.217322	-0.403301	0.771619	0.438286
0.429	-0.217972	-0.403873	0.772476	0.439143
0.43	-0.218621	-0.404444	0.773333	0.44
0.431	-0.219271	-0.405016	0.774191	0.440858
0.432	-0.219921	-0.405587	0.775048	0.441715
0.433	-0.22057	-0.406159	0.775905	0.442572
0.434	-0.22122	-0.40673	0.776762	0.443429
0.435	-0.221869	-0.407301	0.777619	0.444286
0.436	-0.222519	-0.407873	0.778476	0.445143
0.437	-0.223168	-0.408444	0.779333	0.446
0.438	-0.223838	-0.409016	0.780191	0.446858
0.439	-0.224528	-0.409587	0.781048	0.447715
0.44	-0.225217	-0.410159	0.781905	0.448572
0.441	-0.225907	-0.41073	0.782762	0.449429
0.442	-0.226597	-0.411301	0.783619	0.450286
0.443	-0.227286	-0.411873	0.784476	0.451143
0.444	-0.227976	-0.412444	0.785334	0.452
0.445	-0.228666	-0.413016	0.786191	0.452857
0.446	-0.229356	-0.413587	0.787048	0.453715
0.447	-0.230045	-0.414159	0.787905	0.454572
0.448	-0.230735	-0.41473	0.788762	0.455429
0.449	-0.231425	-0.415301	0.789619	0.456286
0.45	-0.232115	-0.415873	0.790476	0.457143
0.451	-0.232804	-0.416444	0.791334	0.458
0.452	-0.233494	-0.417016	0.792191	0.458857
0.453	-0.234184	-0.417587	0.793048	0.459714
0.454	-0.234874	-0.418158	0.793905	0.460571
0.455	-0.235563	-0.41873	0.794762	0.461429
0.456	-0.236253	-0.419301	0.795619	0.462286
0.457	-0.236943	-0.419873	0.796476	0.463143
0.458	-0.237632	-0.420444	0.797334	0.464
0.459	-0.238322	-0.421016	0.798191	0.464857
0.46	-0.239012	-0.421587	0.799048	0.465714
0.461	-0.239702	-0.422158	0.799905	0.466571
0.462	-0.240391	-0.42273	0.800762	0.467428
0.463	-0.241081	-0.423301	0.801619	0.468286
0.464	-0.241771	-0.423873	0.802477	0.469143
0.465	-0.242461	-0.424444	0.803334	0.47
0.466	-0.24315	-0.425016	0.804191	0.470857
0.467	-0.24384	-0.425587	0.805048	0.471714
0.468	-0.24453	-0.426158	0.805905	0.472571
0.469	-0.245229	-0.42673	0.806762	0.473428
0.47	-0.245959	-0.427301	0.807619	0.474285
0.471	-0.246689	-0.427873	0.808477	0.475143
0.472	-0.247419	-0.428444	0.809334	0.476
0.473	-0.248149	-0.429016	0.810191	0.476857
0.474	-0.248879	-0.429587	0.811048	0.477714
0.475	-0.249609	-0.430158	0.811905	0.478571
0.476	-0.250339	-0.43073	0.812762	0.479428
0.477	-0.251069	-0.431301	0.813619	0.480285
0.478	-0.251799	-0.431873	0.814476	0.481143
0.479	-0.252529	-0.432444	0.815333	0.482
0.48	-0.253259	-0.433015	0.816191	0.482857
0.481	-0.253989	-0.433587	0.817048	0.483714
0.482	-0.254718	-0.434158	0.817905	0.484571
0.483	-0.255448	-0.43473	0.818762	0.485428
0.484	-0.256178	-0.435301	0.819619	0.486286
0.485	-0.256908	-0.435873	0.820476	0.487143
0.486	-0.257638	-0.436444	0.821333	0.488
0.487	-0.258368	-0.437015	0.82219	0.488857
0.488	-0.259098	-0.437587	0.823048	0.489714
0.489	-0.259828	-0.438158	0.823905	0.490571
0.49	-0.260558	-0.43873	0.824762	0.491428
0.491	-0.261288	-0.439301	0.825619	0.492286
0.492	-0.262018	-0.439873	0.826476	0.493143
0.493	-0.262748	-0.440444	0.827333	0.494
0.494	-0.263477	-0.441015	0.82819	0.494857
0.495	-0.264207	-0.441587	0.829047	0.495714
0.496	-0.264937	-0.442158	0.829904	0.496571
0.497	-0.265667	-0.44273	0.830762	0.497429
0.498	-0.266397	-0.443301	0.831619	0.498286
0.499	-0.267127	-0.443873	0.832476	0.499143
0.5	-0.267857	-0.444444	0.833333	0.5
0.501	-0.268127	-0.445587	1.00171	0.335047
0.502	-0.268397	-0.44673	1.00343	0.336762
0.503	-0.268667	-0.447873	1.00514	0.338476
0.504	-0.268937	-0.449016	1.00686	0.34019
0.505	-0.269207	-0.450158	1.00857	0.341904
0.506	-0.269477	-0.451301	1.01029	0.343619
0.507	-0.269748	-0.452444	1.012	0.345333
0.508	-0.270018	-0.453587	1.01371	0.347047
0.509	-0.270288	-0.45473	1.01543	0.348762
0.51	-0.270558	-0.455873	1.01714	0.350476
0.511	-0.270828	-0.457016	1.01886	0.35219
0.512	-0.271098	-0.458159	1.02057	0.353905
0.513	-0.271368	-0.459301	1.02229	0.355619
0.514	-0.271638	-0.460444	1.024	0.357333
0.515	-0.271908	-0.461587	1.02571	0.359048
0.516	-0.272178	-0.46273	1.02743	0.360762
0.517	-0.272448	-0.463873	1.02914	0.362476
0.518	-0.272718	-0.465016	1.03086	0.36419
0.519	-0.272989	-0.466159	1.03257	0.365905
0.52	-0.273259	-0.467302	1.03428	0.367619
0.521	-0.273529	-0.468445	1.036	0.369333
0.522	-0.273799	-0.469587	1.03771	0.371048
0.523	-0.274069	-0.47073	1.03943	0.372762
0.524	-0.274339	-0.471873	1.04114	0.374476
0.525	-0.274609	-0.473016	1.04286	0.376191
0.526	-0.274879	-0.474159	1.04457	0.377905
0.527	-0.275149	-0.475302	1.04628	0.379619
0.528	-0.275419	-0.476445	1.048	0.381334
0.529	-0.275689	-0.477588	1.04971	0.383048
0.53	-0.275959	-0.47873	1.05143	0.384762
0.531	-0.27623	-0.479873	1.05314	0.386476
0.532	-0.27653	-0.481016	1.05486	0.388191
0.533	-0.27684	-0.482159	1.05657	0.389905
0.534	-0.27715	-0.483302	1.05828	0.391619
0.535	-0.277461	-0.484445	1.06	0.393334
0.536	-0.277771	-0.485588	1.06171	0.395048
0.537	-0.278081	-0.48673	1.06343	0.396762
0.538	-0.278391	-0.487873	1.06514	0.398476
0.539	-0.278702	-0.489016	1.06686	0.400191
0.54	-0.279012	-0.490159	1.06857	0.401905
0.541	-0.279322	-0.491302	1.07028	0.403619
0.542	-0.279632	-0.492445	1.072	0.405333
0.543	-0.279943	-0.493587	1.07371	0.407048
0.544	-0.280253	-0.49473	1.07543	0.408762
0.545	-0.280563	-0.495873	1.07714	0.410476
0.546	-0.280874	-0.497016	1.07886	0.412191
0.547	-0.281184	-0.498159	1.08057	0.413905
0.548	-0.281494	-0.499302	1.08228	0.415619
0.549	-0.281804	-0.500445	1.084	0.417333
0.55	-0.282115	-0.501587	1.08571	0.419048
0.551	-0.282425	-0.50273	1.08743	0.420762
0.552	-0.282735	-0.503873	1.08914	0.422476
0.553	-0.283045	-0.505016	1.09085	0.42419
0.554	-0.283356	-0.506159	1.09257	0.425905
0.555	-0.283666	-0.507302	1.09428	0.427619
0.556	-0.283976	-0.508444	1.096	0.429333
0.557	-0.284286	-0.509587	1.09771	0.431047
0.558	-0.284597	-0.51073	1.09943	0.432762
0.559	-0.284907	-0.511873	1.10114	0.434476
0.56	-0.285217	-0.513016	1.10285	0.43619
0.561	-0.285528	-0.514159	1.10457	0.437905
0.562	-0.285838	-0.515302	1.10628	0.439619
0.563	-0.286168	-0.516444	1.108	0.441333
0.564	-0.286519	-0.517587	1.10971	0.443047
0.565	-0.286869	-0.51873	1.11143	0.444762
0.566	-0.28722	-0.519873	1.11314	0.446476
0.567	-0.28757	-0.521016	1.11485	0.44819
0.568	-0.287921	-0.522159	1.11657	0.449905
0.569	-0.288271	-0.523302	1.11828	0.451619
0.57	-0.288621	-0.524444	1.12	0.453333
0.571	-0.288972	-0.525587	1.12171	0.455048
0.572	-0.289322	-0.52673	1.12343	0.456762
0.573	-0.289673	-0.527873	1.12514	0.458476
0.574	-0.290023	-0.529016	1.12685	0.460191
0.575	-0.290374	-0.530159	1.12857	0.461905
0.576	-0.290724	-0.531301	1.13028	0.463619
0.577	-0.291075	-0.532444	1.132	0.465333
0.578	-0.291425	-0.533587	1.13371	0.467048
0.579	-0.291776	-0.53473	1.13542	0.468762
0.58	-0.292126	-0.535873	1.13714	0.470476
0.581	-0.292477	-0.537016	1.13885	0.472191
0.582	-0.292827	-0.538159	1.14057	0.473905
0.583	-0.293178	-0.539301	1.14228	0.475619
0.584	-0.293528	-0.540444	1.144	0.477334
0.585	-0.293878	-0.541587	1.14571	0.479048
0.586	-0.294229	-0.54273	1.14742	0.480762
0.587	-0.294579	-0.543873	1.14914	0.482476
0.588	-0.29493	-0.545016	1.15085	0.484191
0.589	-0.29528	-0.546158	1.15257	0.485905
0.59	-0.295631	-0.547301	1.15428	0.487619
0.591	-0.295981	-0.548444	1.156	0.489334
0.592	-0.296332	-0.549587	1.15771	0.491048
0.593	-0.296682	-0.55073	1.15942	0.492762
0.594	-0.297043	-0.551873	1.16114	0.494477
0.595	-0.297433	-0.553016	1.16285	0.496191
0.596	-0.297824	-0.554159	1.16457	0.497905
0.597	-0.298215	-0.555301	1.16628	0.499619
0.598	-0.298605	-0.556444	1.168	0.501334
0.599	-0.298996	-0.557587	1.16971	0.503048
0.6	-0.299386	-0.55873	1.17143	0.504762
0.601	-0.299777	-0.559873	1.17314	0.506476
0.602	-0.300168	-0.561016	1.17486	0.508191
0.603	-0.300558	-0.562159	1.17657	0.509905
0.604	-0.300949	-0.563302	1.17828	0.511619
0.605	-0.30134	-0.564444	1.18	0.513334
0.606	-0.30173	-0.565587	1.18171	0.515048
0.607	-0.302121	-0.56673	1.18343	0.516762
0.608	-0.302511	-0.567873	1.18514	0.518476
0.609	-0.302902	-0.569016	1.18686	0.520191
0.61	-0.303293	-0.570159	1.18857	0.521905
0.611	-0.303683	-0.571302	1.19029	0.523619
0.612	-0.304074	-0.572445	1.192	0.525333
0.613	-0.304465	-0.573587	1.19372	0.527048
0.614	-0.304855	-0.57473	1.19543	0.528762
0.615	-0.305246	-0.575873	1.19714	0.530476
0.616	-0.305636	-0.577016	1.19886	0.532191
0.617	-0.306027	-0.578159	1.20057	0.533905
0.618	-0.306418	-0.579302	1.20229	0.535619
0.619	-0.306808	-0.580445	1.204	0.537333
0.62	-0.307199	-0.581588	1.20572	0.539048
0.621	-0.30759	-0.58273	1.20743	0.540762
0.622	-0.30798	-0.583873	1.20915	0.542476
0.623	-0.308371	-0.585016	1.21086	0.54419
0.624	-0.308761	-0.586159	1.21258	0.545905
0.625	-0.309152	-0.587302	1.21429	0.547619
0.626	-0.309583	-0.588445	1.216	0.549333
0.627	-0.310014	-0.589588	1.21772	0.551048
0.628	-0.310444	-0.590731	1.21943	0.552762
0.629	-0.310875	-0.591873	1.22115	0.554476
0.63	-0.311306	-0.593016	1.22286	0.55619
0.631	-0.311737	-0.594159	1.22458	0.557905
0.632	-0.312167	-0.595302	1.22629	0.559619
0.633	-0.312598	-0.596445	1.228	0.561333
0.634	-0.313029	-0.597588	1.22972	0.563047
0.635	-0.31346	-0.598731	1.23143	0.564762
0.636	-0.313891	-0.599873	1.23315	0.566476
0.637	-0.314321	-0.601016	1.23486	0.56819
0.638	-0.314752	-0.602159	1.23658	0.569905
0.639	-0.315183	-0.603302	1.23829	0.571619
0.64	-0.315614	-0.604445	1.24	0.573333
0.641	-0.316045	-0.605588	1.24172	0.575047
0.642	-0.316475	-0.60673	1.24343	0.576762
0.643	-0.316906	-0.607873	1.24515	0.578476
0.644	-0.317337	-0.609016	1.24686	0.58019
0.645	-0.317768	-0.610159	1.24857	0.581904
0.646	-0.318199	-0.611302	1.25029	0.583619
0.647	-0.318629	-0.612445	1.252	0.585333
0.648	-0.31906	-0.613587	1.25372	0.587047
0.649	-0.319491	-0.61473	1.25543	0.588762
0.65	-0.319922	-0.615873	1.25715	0.590476
0.651	-0.320352	-0.617016	1.25886	0.59219
0.652	-0.320783	-0.618159	1.26057	0.593904
0.653	-0.321214	-0.619302	1.26229	0.595619
0.654	-0.321645	-0.620445	1.264	0.597333
0.655	-0.322076	-0.621587	1.26572	0.599047
0.656	-0.322506	-0.62273	1.26743	0.600761
0.657	-0.322967	-0.623873	1.26915	0.602476
0.658	-0.323438	-0.625016	1.27086	0.60419
0.659	-0.323909	-0.626159	1.27257	0.605904
0.66	-0.32438	-0.627302	1.27429	0.607619
0.661	-0.324851	-0.628445	1.276	0.609333
0.662	-0.325322	-0.629587	1.27772	0.611047
0.663	-0.325793	-0.63073	1.27943	0.612761
0.664	-0.326264	-0.631873	1.28115	0.614476
0.665	-0.326735	-0.633016	1.28286	0.61619
0.666	-0.327206	-0.634159	1.28457	0.617904
0.667	-0.327677	-0.635302	1.28629	0.619619
0.668	-0.328148	-0.636444	1.288	0.621333
0.669	-0.328619	-0.637587	1.28972	0.623047
0.67	-0.32909	-0.63873	1.29143	0.624762
0.671	-0.329561	-0.639873	1.29315	0.626476
0.672	-0.330032	-0.641016	1.29486	0.62819
0.673	-0.330503	-0.642159	1.29657	0.629905
0.674	-0.330974	-0.643302	1.29829	0.631619
0.675	-0.331445	-0.644444	1.3	0.633333
0.676	-0.331916	-0.645587	1.30172	0.635047
0.677	-0.332387	-0.64673	1.30343	0.636762
0.678	-0.332858	-0.647873	1.30514	0.638476
0.679	-0.333329	-0.649016	1.30686	0.64019
0.68	-0.3338	-0.650159	1.30857	0.641905
0.681	-0.334271	-0.651301	1.31029	0.643619
0.682	-0.334742	-0.652444	1.312	0.645333
0.683	-0.335213	-0.653587	1.31372	0.647048
0.684	-0.335684	-0.65473	1.31543	0.648762
0.685	-0.336155	-0.655873	1.31714	0.650476
0.686	-0.336626	-0.657016	1.31886	0.652191
0.687	-0.337097	-0.658159	1.32057	0.653905
0.688	-0.337589	-0.659301	1.32229	0.655619
0.689	-0.3381	-0.660444	1.324	0.657333
0.69	-0.338611	-0.661587	1.32572	0.659048
0.691	-0.339122	-0.66273	1.32743	0.660762
0.692	-0.339633	-0.663873	1.32914	0.662476
0.693	-0.340144	-0.665016	1.33086	0.664191
0.694	-0.340655	-0.666158	1.33257	0.665905
0.695	-0.341166	-0.667301	1.33429	0.667619
0.696	-0.341678	-0.668444	1.336	0.669333
0.697	-0.342189	-0.669587	1.33772	0.671048
0.698	-0.3427	-0.67073	1.33943	0.672762
0.699	-0.343211	-0.671873	1.34114	0.674476
0.7	-0.343722	-0.673016	1.34286	0.67619
0.701	-0.344233	-0.674158	1.34457	0.677905
0.702	-0.344744	-0.675301	1.34629	0.679619
0.703	-0.345256	-0.676444	1.348	0.681333
0.704	-0.345767	-0.677587	1.34971	0.683048
0.705	-0.346278	-0.67873	1.35143	0.684762
0.706	-0.346789	-0.679873	1.35314	0.686476
0.707	-0.3473	-0.681016	1.35486	0.68819
0.708	-0.347811	-0.682158	1.35657	0.689905
0.709	-0.348322	-0.683301	1.35829	0.691619
0.71	-0.348834	-0.684444	1.36	0.693333
0.711	-0.349345	-0.685587	1.36171	0.695047
0.712	-0.349856	-0.68673	1.36343	0.696762
0.713	-0.350367	-0.687873	1.36514	0.698476
0.714	-0.350878	-0.689015	1.36686	0.70019
0.715	-0.351389	-0.690158	1.36857	0.701904
0.716	-0.3519	-0.691301	1.37029	0.703619
0.717	-0.352412	-0.692444	1.372	0.705333
0.718	-0.352923	-0.693587	1.37371	0.707047
0.719	-0.353444	-0.69473	1.37543	0.708762
0.72	-0.353995	-0.695873	1.37714	0.710476
0.721	-0.354547	-0.697016	1.37886	0.71219
0.722	-0.355098	-0.698158	1.38057	0.713905
0.723	-0.355649	-0.699301	1.38229	0.715619
0.724	-0.356201	-0.700444	1.384	0.717333
0.725	-0.356752	-0.701587	1.38571	0.719047
0.726	-0.357303	-0.70273	1.38743	0.720762
0.727	-0.357855	-0.703873	1.38914	0.722476
0.728	-0.358406	-0.705016	1.39086	0.72419
0.729	-0.358957	-0.706158	1.39257	0.725905
0.73	-0.359509	-0.707301	1.39429	0.727619
0.731	-0.36006	-0.708444	1.396	0.729333
0.732	-0.360612	-0.709587	1.39771	0.731048
0.733	-0.361163	-0.71073	1.39943	0.732762
0.734	-0.361714	-0.711873	1.40114	0.734476
0.735	-0.362266	-0.713016	1.40286	0.73619
0.736	-0.362817	-0.714159	1.40457	0.737905
0.737	-0.363368	-0.715302	1.40628	0.739619
0.738	-0.36392	-0.716444	1.408	0.741333
0.739	-0.364471	-0.717587	1.40971	0.743048
0.74	-0.365022	-0.71873	1.41143	0.744762
0.741	-0.365574	-0.719873	1.41314	0.746476
0.742	-0.366125	-0.721016	1.41486	0.748191
0.743	-0.366676	-0.722159	1.41657	0.749905
0.744	-0.367228	-0.723302	1.41828	0.751619
0.745	-0.367779	-0.724445	1.42	0.753334
0.746	-0.368331	-0.725587	1.42171	0.755048
0.747	-0.368882	-0.72673	1.42343	0.756762
0.748	-0.369433	-0.727873	1.42514	0.758476
0.749	-0.369985	-0.729016	1.42686	0.760191
0.75	-0.370536	-0.730159	1.42857	0.761905
0.751	-0.371101	-0.729778	1.428	0.761334
0.752	-0.371665	-0.729397	1.42743	0.760762
0.753	-0.37223	-0.729016	1.42686	0.760191
0.754	-0.372795	-0.728635	1.42628	0.759619
0.755	-0.37336	-0.728254	1.42571	0.759048
0.756	-0.373924	-0.727873	1.42514	0.758476
0.757	-0.374489	-0.727492	1.42457	0.757905
0.758	-0.375054	-0.727111	1.424	0.757334
0.759	-0.375619	-0.72673	1.42343	0.756762
0.76	-0.376183	-0.726349	1.42285	0.756191
0.761	-0.376748	-0.725968	1.42228	0.755619
0.762	-0.377313	-0.725587	1.42171	0.755048
0.763	-0.377878	-0.725206	1.42114	0.754476
0.764	-0.378442	-0.724826	1.42057	0.753905
0.765	-0.379007	-0.724445	1.42	0.753334
0.766	-0.379572	-0.724064	1.41943	0.752762
0.767	-0.380137	-0.723683	1.41885	0.752191
0.768	-0.380701	-0.723302	1.41828	0.751619
0.769	-0.381266	-0.722921	1.41771	0.751048
0.77	-0.381831	-0.72254	1.41714	0.750477
0.771	-0.382395	-0.722159	1.41657	0.749905
0.772	-0.38296	-0.721778	1.416	0.749334
0.773	-0.383525	-0.721397	1.41543	0.748762
0.774	-0.38409	-0.721016	1.41485	0.748191
0.775	-0.384654	-0.720635	1.41428	0.747619
0.776	-0.385219	-0.720254	1.41371	0.747048
0.777	-0.385784	-0.719873	1.41314	0.746477
0.778	-0.386349	-0.719492	1.41257	0.745905
0.779	-0.386913	-0.719111	1.412	0.745334
0.78	-0.387478	-0.71873	1.41142	0.744762
0.781	-0.388043	-0.718349	1.41085	0.744191
0.782	-0.388598	-0.717968	1.41028	0.743619
0.783	-0.389149	-0.717587	1.40971	0.743048
0.784	-0.3897	-0.717206	1.40914	0.742477
0.785	-0.390252	-0.716825	1.40857	0.741905
0.786	-0.390803	-0.716444	1.408	0.741334
0.787	-0.391354	-0.716063	1.40743	0.740762
0.788	-0.391905	-0.715683	1.40685	0.740191
0.789	-0.392457	-0.715302	1.40628	0.739619
0.79	-0.393008	-0.714921	1.40571	0.739048
0.791	-0.393559	-0.71454	1.40514	0.738476
0.792	-0.394111	-0.714159	1.40457	0.737905
0.793	-0.394662	-0.713778	1.404	0.737333
0.794	-0.395213	-0.713397	1.40343	0.736762
0.795	-0.395765	-0.713016	1.40286	0.73619
0.796	-0.396316	-0.712635	1.40228	0.735619
0.797	-0.396867	-0.712254	1.40171	0.735048
0.798	-0.397419	-0.711873	1.40114	0.734476
0.799	-0.39797	-0.711492	1.40057	0.733905
0.8	-0.398521	-0.711111	1.4	0.733333
0.801	-0.399073	-0.71073	1.39943	0.732762
0.802	-0.399624	-0.710349	1.39886	0.73219
0.803	-0.400175	-0.709968	1.39829	0.731619
0.804	-0.400727	-0.709587	1.39772	0.731047
0.805	-0.401278	-0.709206	1.39714	0.730476
0.806	-0.401829	-0.708825	1.39657	0.729904
0.807	-0.402381	-0.708444	1.396	0.729333
0.808	-0.402932	-0.708063	1.39543	0.728761
0.809	-0.403483	-0.707682	1.39486	0.72819
0.81	-0.404035	-0.707301	1.39429	0.727619
0.811	-0.404586	-0.70692	1.39372	0.727047
0.812	-0.405137	-0.70654	1.39315	0.726476
0.813	-0.405682	-0.706159	1.39257	0.725904
0.814	-0.40622	-0.705778	1.392	0.725333
0.815	-0.406758	-0.705397	1.39143	0.724761
0.816	-0.407296	-0.705016	1.39086	0.72419
0.817	-0.407834	-0.704635	1.39029	0.723619
0.818	-0.408372	-0.704254	1.38972	0.723047
0.819	-0.40891	-0.703873	1.38915	0.722476
0.82	-0.409448	-0.703492	1.38857	0.721904
0.821	-0.409986	-0.703111	1.388	0.721333
0.822	-0.410524	-0.70273	1.38743	0.720761
0.823	-0.411061	-0.702349	1.38686	0.72019
0.824	-0.411599	-0.701968	1.38629	0.719619
0.825	-0.412137	-0.701587	1.38572	0.719047
0.826	-0.412675	-0.701206	1.38514	0.718476
0.827	-0.413213	-0.700825	1.38457	0.717904
0.828	-0.413751	-0.700444	1.384	0.717333
0.829	-0.414289	-0.700063	1.38343	0.716762
0.83	-0.414827	-0.699682	1.38286	0.71619
0.831	-0.415365	-0.699301	1.38229	0.715619
0.832	-0.415903	-0.69892	1.38172	0.715047
0.833	-0.416441	-0.698539	1.38114	0.714476
0.834	-0.416979	-0.698158	1.38057	0.713904
0.835	-0.417517	-0.697777	1.38	0.713333
0.836	-0.418055	-0.697396	1.37943	0.712762
0.837	-0.418593	-0.697015	1.37886	0.71219
0.838	-0.419131	-0.696635	1.37829	0.711619
0.839	-0.419669	-0.696254	1.37771	0.711047
0.84	-0.420207	-0.695873	1.37714	0.710476
0.841	-0.420745	-0.695492	1.37657	0.709904
0.842	-0.421283	-0.695111	1.376	0.709333
0.843	-0.421821	-0.69473	1.37543	0.708762
0.844	-0.422355	-0.694349	1.37486	0.70819
0.845	-0.42288	-0.693968	1.37429	0.707619
0.846	-0.423404	-0.693587	1.37371	0.707047
0.847	-0.423929	-0.693206	1.37314	0.706476
0.848	-0.424453	-0.692825	1.37257	0.705904
0.849	-0.424978	-0.692444	1.372	0.705333
0.85	-0.425502	-0.692063	1.37143	0.704762
0.851	-0.426027	-0.691682	1.37086	0.70419
0.852	-0.426551	-0.691301	1.37028	0.703619
0.853	-0.427076	-0.69092	1.36971	0.703047
0.854	-0.427601	-0.690539	1.36914	0.702476
0.855	-0.428125	-0.690159	1.36857	0.701904
0.856	-0.42865	-0.689778	1.368	0.701333
0.857	-0.429174	-0.689397	1.36743	0.700762
0.858	-0.429699	-0.689016	1.36686	0.70019
0.859	-0.430223	-0.688635	1.36628	0.699619
0.86	-0.430748	-0.688254	1.36571	0.699047
0.861	-0.431272	-0.687873	1.36514	0.698476
0.862	-0.431797	-0.687492	1.36457	0.697905
0.863	-0.432321	-0.687111	1.364	0.697333
0.864	-0.432846	-0.68673	1.36343	0.696762
0.865	-0.433371	-0.686349	1.36286	0.69619
0.866	-0.433895	-0.685968	1.36228	0.695619
0.867	-0.43442	-0.685587	1.36171	0.695047
0.868	-0.434944	-0.685207	1.36114	0.694476
0.869	-0.435469	-0.684826	1.36057	0.693905
0.87	-0.435993	-0.684445	1.36	0.693333
0.871	-0.436518	-0.684064	1.35943	0.692762
0.872	-0.437042	-0.683683	1.35885	0.69219
0.873	-0.437567	-0.683302	1.35828	0.691619
0.874	-0.438091	-0.682921	1.35771	0.691047
0.875	-0.438616	-0.68254	1.35714	0.690476
0.876	-0.439127	-0.682159	1.35657	0.689905
0.877	-0.439638	-0.681778	1.356	0.689333
0.878	-0.44015	-0.681397	1.35543	0.688762
0.879	-0.440661	-0.681016	1.35486	0.68819
0.88	-0.441172	-0.680635	1.35428	0.687619
0.881	-0.441683	-0.680254	1.35371	0.687047
0.882	-0.442194	-0.679873	1.35314	0.686476
0.883	-0.442705	-0.679492	1.35257	0.685905
0.884	-0.443217	-0.679111	1.352	0.685333
0.885	-0.443728	-0.67873	1.35143	0.684762
0.886	-0.444239	-0.678349	1.35086	0.68419
0.887	-0.44475	-0.677968	1.35029	0.683619
0.888	-0.445261	-0.677588	1.34971	0.683047
0.889	-0.445772	-0.677207	1.34914	0.682476
0.89	-0.446284	-0.676826	1.34857	0.681905
0.891	-0.446795	-0.676445	1.348	0.681333
0.892	-0.447306	-0.676064	1.34743	0.680762
0.893	-0.447817	-0.675683	1.34686	0.68019
0.894	-0.448328	-0.675302	1.34629	0.679619
0.895	-0.448839	-0.674921	1.34572	0.679048
0.896	-0.449351	-0.67454	1.34514	0.678476
0.897	-0.449862	-0.674159	1.34457	0.677905
0.898	-0.450373	-0.673778	1.344	0.677333
0.899	-0.450884	-0.673397	1.34343	0.676762
0.9	-0.451395	-0.673016	1.34286	0.67619
0.901	-0.451906	-0.672635	1.34229	0.675619
0.902	-0.452418	-0.672254	1.34172	0.675048
0.903	-0.452929	-0.671873	1.34115	0.674476
0.904	-0.45344	-0.671492	1.34058	0.673905
0.905	-0.453951	-0.671111	1.34	0.673333
0.906	-0.454462	-0.67073	1.33943	0.672762
0.907	-0.454963	-0.670349	1.33886	0.67219
0.908	-0.455461	-0.669968	1.33829	0.671619
0.909	-0.455959	-0.669587	1.33772	0.671048
0.91	-0.456457	-0.669206	1.33715	0.670476
0.911	-0.456954	-0.668825	1.33658	0.669905
0.912	-0.457452	-0.668444	1.336	0.669333
0.913	-0.45795	-0.668064	1.33543	0.668762
0.914	-0.458448	-0.667683	1.33486	0.66819
0.915	-0.458945	-0.667302	1.33429	0.667619
0.916	-0.459443	-0.666921	1.33372	0.667048
0.917	-0.459941	-0.66654	1.33315	0.666476
0.918	-0.460439	-0.666159	1.33257	0.665905
0.919	-0.460936	-0.665778	1.332	0.665333
0.92	-0.461434	-0.665397	1.33143	0.664762
0.921	-0.461932	-0.665016	1.33086	0.66419
0.922	-0.46243	-0.664635	1.33029	0.663619
0.923	-0.462927	-0.664254	1.32972	0.663048
0.924	-0.463425	-0.663873	1.32915	0.662476
0.925	-0.463923	-0.663492	1.32857	0.661905
0.926	-0.464421	-0.663111	1.328	0.661333
0.927	-0.464918	-0.66273	1.32743	0.660762
0.928	-0.465416	-0.662349	1.32686	0.660191
0.929	-0.465914	-0.661968	1.32629	0.659619
0.93	-0.466412	-0.661587	1.32572	0.659048
0.931	-0.46691	-0.661206	1.32514	0.658476
0.932	-0.467407	-0.660825	1.32457	0.657905
0.933	-0.467905	-0.660444	1.324	0.657333
0.934	-0.468403	-0.660063	1.32343	0.656762
0.935	-0.468901	-0.659682	1.32286	0.656191
0.936	-0.469398	-0.659301	1.32229	0.655619
0.937	-0.469896	-0.65892	1.32172	0.655048
0.938	-0.470387	-0.658539	1.32114	0.654476
0.939	-0.470872	-0.658159	1.32057	0.653905
0.94	-0.471356	-0.657778	1.32	0.653333
0.941	-0.47184	-0.657397	1.31943	0.652762
0.942	-0.472325	-0.657016	1.31886	0.652191
0.943	-0.472809	-0.656635	1.31829	0.651619
0.944	-0.473293	-0.656254	1.31772	0.651048
0.945	-0.473778	-0.655873	1.31714	0.650476
0.946	-0.474262	-0.655492	1.31657	0.649905
0.947	-0.474747	-0.655111	1.316	0.649333
0.948	-0.475231	-0.65473	1.31543	0.648762
0.949	-0.475715	-0.654349	1.31486	0.648191
0.95	-0.4762	-0.653968	1.31429	0.647619
0.951	-0.476684	-0.653587	1.31371	0.647048
0.952	-0.477169	-0.653206	1.31314	0.646476
0.953	-0.477653	-0.652825	1.31257	0.645905
0.954	-0.478137	-0.652444	1.312	0.645334
0.955	-0.478622	-0.652063	1.31143	0.644762
0.956	-0.479106	-0.651682	1.31086	0.644191
0.957	-0.479591	-0.651301	1.31029	0.643619
0.958	-0.480075	-0.65092	1.30971	0.643048
0.959	-0.480559	-0.650539	1.30914	0.642476
0.96	-0.481044	-0.650158	1.30857	0.641905
0.961	-0.481528	-0.649777	1.308	0.641334
0.962	-0.482012	-0.649396	1.30743	0.640762
0.963	-0.482497	-0.649016	1.30686	0.640191
0.964	-0.482981	-0.648635	1.30628	0.639619
0.965	-0.483466	-0.648254	1.30571	0.639048
0.966	-0.48395	-0.647873	1.30514	0.638476
0.967	-0.484434	-0.647492	1.30457	0.637905
0.968	-0.484919	-0.647111	1.304	0.637334
0.969	-0.4854	-0.64673	1.30343	0.636762
0.97	-0.485871	-0.646349	1.30286	0.636191
0.971	-0.486342	-0.645968	1.30228	0.635619
0.972	-0.486813	-0.645587	1.30171	0.635048
0.973	-0.487284	-0.645206	1.30114	0.634476
0.974	-0.487755	-0.644825	1.30057	0.633905
0.975	-0.488226	-0.644444	1.3	0.633334
0.976	-0.488697	-0.644063	1.29943	0.632762
0.977	-0.489168	-0.643682	1.29885	0.632191
0.978	-0.489639	-0.643301	1.29828	0.631619
0.979	-0.49011	-0.64292	1.29771	0.631048
0.98	-0.49058	-0.64254	1.29714	0.630476
0.981	-0.491051	-0.642159	1.29657	0.629905
0.982	-0.491522	-0.641778	1.296	0.629334
0.983	-0.491993	-0.641397	1.29543	0.628762
0.984	-0.492464	-0.641016	1.29485	0.628191
0.985	-0.492935	-0.640635	1.29428	0.627619
0.986	-0.493406	-0.640254	1.29371	0.627048
0.987	-0.493877	-0.639873	1.29314	0.626477
0.988	-0.494348	-0.639492	1.29257	0.625905
0.989	-0.494819	-0.639111	1.292	0.625334
0.99	-0.49529	-0.63873	1.29143	0.624762
0.991	-0.495761	-0.638349	1.29085	0.624191
0.992	-0.496232	-0.637968	1.29028	0.623619
0.993	-0.496703	-0.637588	1.28971	0.623048
0.994	-0.497174	-0.637207	1.28914	0.622477
0.995	-0.497645	-0.636826	1.28857	0.621905
0.996	-0.498116	-0.636445	1.288	0.621334
0.997	-0.498587	-0.636064	1.28742	0.620762
0.998	-0.499058	-0.635683	1.28685	0.620191
0.999	-0.499529	-0.635302	1.28628	0.619619
1	-0.5	-0.634921	1.28571	0.619048
